Au  C  H Ir Pt 
 1.0000000000000000
     5.5578593001262604    0.0000000000000000    0.0000000000000000
     2.7789296500631302    4.8132473445689401    0.0000000000000000
     0.0000000000000000    0.0000000000000000   30.8069596737456983
   1   1   4   1  14
Cartesian
  0.0282804437986071  0.0102592289770320 18.9292397219154189
  5.6356342188570707  0.1779401889388497 22.4360087559639894
  0.5745637272775558  0.8378724163152425 21.7070513863501908
  4.9868030996682036  0.7817069518933180 23.0860948969824236
  7.8042168586162379  4.2484002370752378 21.9000245072312580
  3.6200586730339781  4.4735618424434609 23.0337764995762235
  2.7806016503070454  0.0001054247056510 11.9854582725918082
  4.1960563852488200  2.4169546488414873 18.9314707986984168
  1.4179930236158960  2.4169955765891586 18.9330820052604274
  2.8073222350219842  0.0105629369303294 18.9321127398492841
  4.1876913354207685  4.0183843323639010 16.6069251344966275
  2.7807887564272407  4.8137312287293721 11.9847116803015723
  5.5772917546116947  1.6116236603255587 16.6067747141304984
  5.5678242645708966  3.2126021280978758 14.3121224687732589
  2.7888902220903846  3.2123958785041182 14.3099980674758704
  4.1782974156255968  0.8058904564565879 14.3094878505497540
  1.3994195885660035  0.8058582946125119 14.3102474189810351
  4.1705443889941378  2.4074079562798696 11.9854161267317352
  1.3908951807199923  2.4072588447504626 11.9857167962871269
  2.7983847979970693  1.6115454036605230 16.6083608412451937
  6.9668120555702764  4.0183652220635961 16.6068859342557928
