Pt   C    H                             
   1.00000000000000     
     5.5578593001262604    0.0000000000000000    0.0000000000000000
     2.7789296500631302    4.8132473445689401    0.0000000000000000
     0.0000000000000000    0.0000000000000000   30.8069596737456983
   Pt   C    H 
    16     1     4
Direct
  0.0023191595217171  1.0032570773388831  0.3931259482819542
  0.5022850684765104  0.0029780378525247  0.3932495381011480
  0.0020803033764525  0.5032464202777700  0.3932013460801534
  0.5022452122793060  0.5033566571048468  0.3930455763568567
  0.1710682844839795  0.1693949201225529  0.4685228231923411
  0.6711953713781241  0.1695534215484013  0.4684475275402438
  0.1713028617629027  0.6693244627621799  0.4685221432462905
  0.6713340930811424  0.6697942747346456  0.4687156654811745
  0.8394085880963542  0.3339276210083438  0.5425902222028489
  0.3395120342864127  0.3327692422451722  0.5428689636442987
  0.8408039322436475  0.8341195128533243  0.5430426471471206
  0.3389369730846635  0.8339302734763471  0.5427051516413869
  0.0044294141443246  0.9944191490355196  0.6181817166740138
  0.5061271925912865  0.9956695660178591  0.6178060324715796
  0.0063692600485381  0.4962420811391878  0.6180471949897437
  0.5043920446177863  0.4965798046590330  0.6175262540419817
  1.0043535892463631  0.0376151606738958  0.7047595815124009
  0.9015405586870540  0.9139778686179644  0.7005427570916876
  0.8788560675925629  0.2151710867745660  0.7260671390411885
  0.2187614826953274  0.9075882060833832  0.7159100658512177
  0.0135831160207893  0.1526479401396861  0.6744901181345094
 
             NaN             NaN             NaN
             NaN             NaN             NaN
             NaN             NaN             NaN
             NaN             NaN             NaN
             NaN             NaN             NaN
             NaN             NaN             NaN
             NaN             NaN             NaN
             NaN             NaN             NaN
             NaN             NaN             NaN
             NaN             NaN             NaN
             NaN             NaN             NaN
             NaN             NaN             NaN
             NaN             NaN             NaN
             NaN             NaN             NaN
             NaN             NaN             NaN
             NaN             NaN             NaN
             NaN             NaN             NaN
             NaN             NaN             NaN
             NaN             NaN             NaN
             NaN             NaN             NaN
             NaN             NaN             NaN
