Pt   C    H 
1
   5.5578593001262604   0.0000000000000000   0.0000000000000000
   2.7789296500631302   4.8132473445689401   0.0000000000000000
   0.0000000000000000   0.0000000000000000  30.8069596737456983
Pt   C    H 
16  1  4  
Direct
  0.0009405480348980  0.9993384484787140  0.3895938123884000  
  0.4991113915891850  0.0001584191517089  0.3894819082590620  
  0.0008278307685921  0.4993833456298790  0.3895780369814070  
  0.4992165710106260  0.5001763454944430  0.3895315782285780  
  0.1687773675460790  0.1656572209233110  0.4654974455074720  
  0.6690179811069720  0.1655336019051050  0.4646730670251490  
  0.1689664766220480  0.6655135934284880  0.4654778191302620  
  0.6689956758507030  0.6656119159362440  0.4648212814552300  
  0.8397374338306230  0.3304686979299070  0.5400255972283440  
  0.3386909260870330  0.3313373144947220  0.5397022345935980  
  0.8395759492467170  0.8314717060985150  0.5399348298300510  
  0.3372952435433910  0.8319699416460640  0.5401094661900600  
  0.0086806615561064  0.9977519169948000  0.6184048399062581  
  0.5093241330862950  0.9970995839906840  0.6145815414652540  
  0.0093188519399332  0.4972530277888400  0.6162030270710070  
  0.5097517323518310  0.4968009689148310  0.6145754902755450  
  0.9991462192431050  0.0055928652521177  0.7154853963228200  
  0.9244076827963530  0.8985995033659649  0.7106639723636590  
  0.8831098758432649  0.1526679992802840  0.7311595188401020  
  0.1840537008568030  0.8847791462869350  0.7328479639337150  
  0.0137562860770446  0.3111230310466870  0.6922619822460870  
