Pt   C    H                             
   1.00000000000000     
     5.5578593001262604    0.0000000000000000    0.0000000000000000
     2.7789296500631302    4.8132473445689401    0.0000000000000000
     0.0000000000000000    0.0000000000000000   30.8069596737456983
   Pt   C    H 
    16     1     4
Direct
  0.0004331390098310  0.9997992881055306  0.3926280043025359
  0.4970608316855396  0.0013028055705599  0.3924142182405035
  0.0002388612571946  0.4999222694350134  0.3925925982735067
  0.4969651988724625  0.5015526404472609  0.3924076873134802
  0.1684478625425846  0.1625987876716305  0.4690447146590805
  0.6688711850207588  0.1626893470309971  0.4675148511705572
  0.1683754357128666  0.6629256708055878  0.4691031969272164
  0.6686146429920528  0.6628193642376704  0.4677975917116486
  0.8428045841973308  0.3211131894791900  0.5436751385056865
  0.3407675004634867  0.3230071268844088  0.5429830216964966
  0.8428296615950142  0.8227833015949927  0.5438011727612613
  0.3374198858407335  0.8246720815330238  0.5440616727628700
  0.0136406631351652  0.9828081605128863  0.6261181228006394
  0.5160745328026306  0.9822368360800476  0.6171542822086085
  0.0157476812066395  0.4821584380171862  0.6206782685436560
  0.5164039801088114  0.4824470646794733  0.6171278605656030
  0.0029679867257908  0.9794704178481674  0.6933806235728230
  0.8663369179856231  0.8998969693802151  0.7036227185268503
  0.9221204966255894  0.1924133753849250  0.7053328129121487
  0.2162618854269391  0.8428260967524762  0.7050211030405147
  0.0351431717511699  0.4647511522072072  0.6709906101772845
 
             NaN             NaN             NaN
             NaN             NaN             NaN
             NaN             NaN             NaN
             NaN             NaN             NaN
             NaN             NaN             NaN
             NaN             NaN             NaN
             NaN             NaN             NaN
             NaN             NaN             NaN
             NaN             NaN             NaN
             NaN             NaN             NaN
             NaN             NaN             NaN
             NaN             NaN             NaN
             NaN             NaN             NaN
             NaN             NaN             NaN
             NaN             NaN             NaN
             NaN             NaN             NaN
             NaN             NaN             NaN
             NaN             NaN             NaN
             NaN             NaN             NaN
             NaN             NaN             NaN
             NaN             NaN             NaN
