Pt   C    H 
1
   5.5578593001262604   0.0000000000000000   0.0000000000000000
   2.7789296500631302   4.8132473445689401   0.0000000000000000
   0.0000000000000000   0.0000000000000000  30.8069596737456983
Pt   C    H 
16  1  4  
Direct
  0.0018810960697961  0.9986768969574280  0.3896652529788920  
  0.4982227831783700  0.0003168383034179  0.3894414447202140  
  0.0016556615371842  0.4987666912597580  0.3896337021649050  
  0.4984331420212510  0.5003526909888860  0.3895407846592470  
  0.1708796195975860  0.1624038277949840  0.4661128867471130  
  0.6715082529564450  0.1621325181862670  0.4644740981110790  
  0.1710869026196790  0.6624623502538900  0.4660793897211160  
  0.6713038413260650  0.6623578232140220  0.4647213156955480  
  0.8460228270732210  0.3230988209063410  0.5406677284300671  
  0.3440071212356780  0.3248592249136330  0.5399998349160170  
  0.8454847471447710  0.8250057465419920  0.5405103298304870  
  0.3413688454373120  0.8260078057789820  0.5408459291288150  
  0.0171751574836781  0.9886156633108381  0.6220257322319950  
  0.5186011846277940  0.9873593873448940  0.6142196229337800  
  0.0181657321361547  0.4881190287885450  0.6174730555523920  
  0.5193743018249690  0.4871157961693900  0.6142374281780560  
  0.0084271099812556  0.9859940419199510  0.6952408740065570  
  0.8486850293357070  0.9515507402076220  0.7023837880061740  
  0.9716619855048430  0.1700529787312640  0.7082062179467130  
  0.2003206494382410  0.8170107628573060  0.7077486938131430  
  0.0300408459102237  0.4546263377325850  0.6729129574205390  
