 C  O Pd 
 1.0000000000000000
     5.5720014357499945    0.0000000000000000    0.0000000000000000
     2.7860007178749973    4.8254947932828607    0.0000000000000000
     0.0000000000000000    0.0000000000000000   29.0990402424284973
   1   1  20
Selective dynamics
Cartesian
  1.3930003589374986  0.8042491322138101 20.9487002424285009   T   T   T
  1.3930003589374986  0.8042491322138101 22.0990402424285008   T   T   T
  4.1790010768124954  2.4127473966414303 19.0990402424285008   T   T   T
  1.3930003589374986  2.4127473966414303 19.0990402424285008   T   T   T
  2.7860007178749973  0.0000000000000000 19.0990402424285008   T   T   T
  0.0000000000000000  0.0000000000000000 19.0990402424285008   T   T   T
  4.1790010768124963  4.0212456610690506 16.8242801818213792   T   T   T
  1.3930003589374984  4.0212456610690506 16.8242801818213792   T   T   T
  2.7860007178749977  1.6084982644276202 16.8242801818213792   T   T   T
  0.0000000000000000  1.6084982644276202 16.8242801818213792   T   T   T
  5.5720014357499945  3.2169965288552405 14.5495201212142504   T   T   T
  0.0000000000000000  1.6084982644276202 10.0000000000000000   F   F   F
  1.3930003589374986  0.8042491322138101 14.5495201212142504   T   T   T
  4.1790010768124954  2.4127473966414303 12.2747600606071252   F   F   F
  1.3930003589374986  2.4127473966414303 12.2747600606071252   F   F   F
  2.7860007178749973  0.0000000000000000 12.2747600606071252   F   F   F
  0.0000000000000000  0.0000000000000000 12.2747600606071252   F   F   F
  4.1790010768124963  4.0212456610690506 10.0000000000000000   F   F   F
  1.3930003589374984  4.0212456610690506 10.0000000000000000   F   F   F
  2.7860007178749977  1.6084982644276202 10.0000000000000000   F   F   F
  4.1790010768124954  0.8042491322138101 14.5495201212142504   T   T   T
  2.7860007178749973  3.2169965288552405 14.5495201212142504   T   T   T
