Au  C  H Ir Pt                          
   1.00000000000000     
     5.5578593001262604    0.0000000000000000    0.0000000000000000
     2.7789296500631302    4.8132473445689401    0.0000000000000000
     0.0000000000000000    0.0000000000000000   30.8069596737456983
   Au   C    H    Ir   Pt
     1     1     4     1    14
Direct
  0.3381595142650653  0.8328927402578259  0.5392715814989941
  0.0000860705184778  0.0450129635618879  0.7204477171944674
  0.0256463540893321  0.1713477633012985  0.6951787881418383
  0.8438954497100681  0.1852800142368949  0.7439230984579766
  0.9286873752964624  0.9119860400309392  0.7053974506986691
  0.2013496433248392  0.9142273755108832  0.7363580305493116
  0.5007040941557435  0.0000473039706463  0.3894134205188209
  0.5066824786912463  0.4991997555084211  0.6146768500368225
  0.0070495777902408  0.4992418390115176  0.6147143090615259
  0.5070223018867566  0.9991716671763484  0.6147257628059890
  0.0069699393751392  0.9990782447732229  0.6144280605985770
  0.0006660482512117  0.0001971110622492  0.3893634138904929
  0.8381397646541870  0.3329439167423871  0.5392517563026544
  0.6692731155779583  0.6666463286966575  0.4649254373724290
  0.1693221717794913  0.6665297591618682  0.4647953373828670
  0.6692682206165728  0.1665985224029498  0.4647878492774993
  0.1692859681279515  0.1665795776567904  0.4648164136537716
  0.5007445585597026  0.5002716711901414  0.3894063405482768
  0.0005165498418123  0.5002303703401196  0.3894182304056244
  0.3382426796880083  0.3327819547891195  0.5393714133364114
  0.8381771859696343  0.8329029561362233  0.5392616275054394
 
  0.00000000E+00  0.00000000E+00  0.00000000E+00
  0.00000000E+00  0.00000000E+00  0.00000000E+00
  0.00000000E+00  0.00000000E+00  0.00000000E+00
  0.00000000E+00  0.00000000E+00  0.00000000E+00
  0.00000000E+00  0.00000000E+00  0.00000000E+00
  0.00000000E+00  0.00000000E+00  0.00000000E+00
  0.00000000E+00  0.00000000E+00  0.00000000E+00
  0.00000000E+00  0.00000000E+00  0.00000000E+00
  0.00000000E+00  0.00000000E+00  0.00000000E+00
  0.00000000E+00  0.00000000E+00  0.00000000E+00
  0.00000000E+00  0.00000000E+00  0.00000000E+00
  0.00000000E+00  0.00000000E+00  0.00000000E+00
  0.00000000E+00  0.00000000E+00  0.00000000E+00
  0.00000000E+00  0.00000000E+00  0.00000000E+00
  0.00000000E+00  0.00000000E+00  0.00000000E+00
  0.00000000E+00  0.00000000E+00  0.00000000E+00
  0.00000000E+00  0.00000000E+00  0.00000000E+00
  0.00000000E+00  0.00000000E+00  0.00000000E+00
  0.00000000E+00  0.00000000E+00  0.00000000E+00
  0.00000000E+00  0.00000000E+00  0.00000000E+00
  0.00000000E+00  0.00000000E+00  0.00000000E+00
