Pt   C    H                             
   1.00000000000000     
     5.5578593001262604    0.0000000000000000    0.0000000000000000
     2.7789296500631302    4.8132473445689401    0.0000000000000000
     0.0000000000000000    0.0000000000000000   30.8069596737456983
   Pt   C    H 
    16     1     4
Direct
  0.0006700611190738  1.0042502161216078  0.3941560354393941
  0.4981934691664937  0.0055959170092839  0.3939656634195878
  0.0006106913248060  0.5044042188152487  0.3940301269517730
  0.4973003239352948  0.5062918012982582  0.3936337860265938
  0.1682743472015779  0.1688587429427579  0.4702560110183786
  0.6679373228543357  0.1704777102457891  0.4689624664887008
  0.1671743208800080  0.6699566800413349  0.4705053922931550
  0.6679786828978275  0.6698223236180725  0.4692965177360716
  0.8399628927346917  0.3275657515695045  0.5447700775736720
  0.3392664827461808  0.3300875898762495  0.5440325443075008
  0.8413504808907795  0.8298484069337224  0.5456242676287798
  0.3347731671483191  0.8325628297908615  0.5455319241247454
  0.0078464784245635  0.9858432246330728  0.6288980721308625
  0.5114765480990979  0.9891013742361641  0.6186373846517248
  0.0093151122452234  0.4898493915383120  0.6208359175706306
  0.5100653275549307  0.4903243661184180  0.6185025876543135
 -0.0026444610752389  0.9755200352865065  0.6963690465166826
  0.8989923999943803  0.8547190392514562  0.7060957778633248
  0.8766157034548974  0.1887697667776269  0.7090178579013146
  0.2128589725252990  0.8760403325991997  0.7082256690273662
  0.0464519047497402  0.3670980140846985  0.6674272203129675
 
             NaN             NaN             NaN
             NaN             NaN             NaN
             NaN             NaN             NaN
             NaN             NaN             NaN
             NaN             NaN             NaN
             NaN             NaN             NaN
             NaN             NaN             NaN
             NaN             NaN             NaN
             NaN             NaN             NaN
             NaN             NaN             NaN
             NaN             NaN             NaN
             NaN             NaN             NaN
             NaN             NaN             NaN
             NaN             NaN             NaN
             NaN             NaN             NaN
             NaN             NaN             NaN
             NaN             NaN             NaN
             NaN             NaN             NaN
             NaN             NaN             NaN
             NaN             NaN             NaN
             NaN             NaN             NaN
