Pt   C    H 
1
   5.5578593001262604   0.0000000000000000   0.0000000000000000
   2.7789296500631302   4.8132473445689401   0.0000000000000000
   0.0000000000000000   0.0000000000000000  30.8069596737456983
Pt   C    H 
16  1  4  
Direct
  0.0016459590610716  0.9988422848377490  0.3896473928312690  
  0.4984449352810740  0.0002772335154906  0.3894515606049260  
  0.0014487038450362  0.4989208548522880  0.3896197858690300  
  0.4986289992685950  0.5003086046152750  0.3895384830515800  
  0.1703540565847090  0.1632171760770660  0.4659590264372030  
  0.6708856849940770  0.1629827891159770  0.4645238403395960  
  0.1705567961202710  0.6632251610475390  0.4659289970734020  
  0.6707267999572240  0.6631713463945770  0.4647463071354690  
  0.8444514787625710  0.3249412901622330  0.5405071956296360  
  0.3426780724485170  0.3264787473089050  0.5399254348354120  
  0.8440075476702570  0.8266222364311230  0.5403664548303780  
  0.3403504449638320  0.8274983397457520  0.5406618133941260  
  0.0150515335017852  0.9908997267318280  0.6211205091505611  
  0.5162819217424200  0.9897944365063420  0.6143101025666480  
  0.0159540120870993  0.4904025285386190  0.6171555484320460  
  0.5169686594566850  0.4895370893557500  0.6143219437024290  
  0.0061068872967180  0.9908937477529920  0.7003020045856230  
  0.8676156927008690  0.9383129309972080  0.7044538340955460  
  0.9495239580894490  0.1657067338685190  0.7139445431700610  
  0.1962539122928810  0.8339528587147130  0.7140235113432860  
  0.0259697059519289  0.4187505110611100  0.6777502136269260  
