Au  C  H Ir Pt 
 1.0000000000000000
     5.5578593001262639    0.0000000000000000    0.0000000000000000
     2.7789296500631320    4.8132473445689445    0.0000000000000000
     0.0000000000000000    0.0000000000000000   30.8069596737456877
   1   1   4   1  14
Selective dynamics
Cartesian
  6.9619745543264084  4.0332012441284082 16.6160211237194524   T   T   T
  0.0136788521195617  0.1212538281835166 22.6656019342824351   T   T   T
  4.7919822652141688  0.6511506359586601 23.2319232269842963   T   T   T
  2.3507214319469925  4.0703142732874618 22.1484836437833863   T   T   T
  0.8006680849322465 -0.2284004765849827 23.3500498743375005   T   T   T
  0.4517516321528107  0.8067951931769495 21.9225715982494549   T   T   T
  2.7789296500631320  0.0000000000000000 11.9999999999999662   F   F   F
  2.7852015215781769  3.2179679244519694 14.3214238420357294   T   T   T
  5.5640869631980072  3.2194175400477922 14.3228101144173525   T   T   T
  5.5710388078646487  1.6261006237877556 16.6167646865672758   T   T   T
  2.7916150914073423  1.6259890966223756 16.6174168158237343   T   T   T
  1.3957475543495939  0.8130085645535584 14.3216011585291518   T   T   T
  4.1805532949851223  4.0331743470192905 16.6164423602700282   T   T   T
  0.0201764241038265  0.0331544692284956 18.9396242811793165   T   T   T
  2.7981985918753662  0.0329215559859392 18.9445383737528239   T   T   T
  1.4098370756968230  2.4373660120169625 18.9442160896060159   T   T   T
  4.1871368755755185  2.4378430764072796 18.9436170107957587   T   T   T
  4.1683944750946980  2.4066236722844723 11.9999999999999662   F   F   F
  1.3894648250315660  2.4066236722844723 11.9999999999999662   F   F   F
  4.1739248344931132  0.8131244269850374 14.3212940646315872   T   T   T
  0.0000000000000000  0.0000000000000000 11.9999999999999662   F   F   F
