Au  C  H Ir Pt                          
   1.00000000000000     
     5.5578593001262604    0.0000000000000000    0.0000000000000000
     2.7789296500631302    4.8132473445689401    0.0000000000000000
     0.0000000000000000    0.0000000000000000   30.8069596737456983
   Au   C    H    Ir   Pt
     1     1     4     1    14
Direct
  0.3347731671483203  0.8325628297908594  0.5455319241247452
  0.9973555389247579  0.9755200352865074  0.6963690465166792
  0.0464519047497376  0.3670980140846964  0.6674272203129661
  0.8766157034548954  0.1887697667776251  0.7090178579013156
  0.8989923999943770  0.8547190392514565  0.7060957778633252
  0.2128589725252965  0.8760403325992030  0.7082256690273638
  0.4981934691664947  0.0055959170092805  0.3939656634195856
  0.5100653275549334  0.4903243661184149  0.6185025876543122
  0.0093151122452255  0.4898493915383142  0.6208359175706306
  0.5114765480990968  0.9891013742361636  0.6186373846517270
  0.0078464784245611  0.9858432246330722  0.6288980721308590
  0.0006700611190738  0.0042502161216049  0.3941560354393943
  0.8399628927346896  0.3275657515695016  0.5447700775736735
  0.6679786828978251  0.6698223236180709  0.4692965177360691
  0.1671743208800081  0.6699566800413379  0.4705053922931555
  0.6679373228543355  0.1704777102457911  0.4689624664886978
  0.1682743472015744  0.1688587429427599  0.4702560110183782
  0.4973003239352920  0.5062918012982607  0.3936337860265908
  0.0006106913248090  0.5044042188152460  0.3940301269517761
  0.3392664827461829  0.3300875898762499  0.5440325443074983
  0.8413504808907817  0.8298484069337206  0.5456242676287815
 
  0.00000000E+00  0.00000000E+00  0.00000000E+00
  0.00000000E+00  0.00000000E+00  0.00000000E+00
  0.00000000E+00  0.00000000E+00  0.00000000E+00
  0.00000000E+00  0.00000000E+00  0.00000000E+00
  0.00000000E+00  0.00000000E+00  0.00000000E+00
  0.00000000E+00  0.00000000E+00  0.00000000E+00
  0.00000000E+00  0.00000000E+00  0.00000000E+00
  0.00000000E+00  0.00000000E+00  0.00000000E+00
  0.00000000E+00  0.00000000E+00  0.00000000E+00
  0.00000000E+00  0.00000000E+00  0.00000000E+00
  0.00000000E+00  0.00000000E+00  0.00000000E+00
  0.00000000E+00  0.00000000E+00  0.00000000E+00
  0.00000000E+00  0.00000000E+00  0.00000000E+00
  0.00000000E+00  0.00000000E+00  0.00000000E+00
  0.00000000E+00  0.00000000E+00  0.00000000E+00
  0.00000000E+00  0.00000000E+00  0.00000000E+00
  0.00000000E+00  0.00000000E+00  0.00000000E+00
  0.00000000E+00  0.00000000E+00  0.00000000E+00
  0.00000000E+00  0.00000000E+00  0.00000000E+00
  0.00000000E+00  0.00000000E+00  0.00000000E+00
  0.00000000E+00  0.00000000E+00  0.00000000E+00
