Au  C  H Ir Pt 
 1.0000000000000000
     5.5578593001262604    0.0000000000000000    0.0000000000000000
     2.7789296500631302    4.8132473445689401    0.0000000000000000
     0.0000000000000000    0.0000000000000000   30.8069596737456983
   1   1   4   1  14
Cartesian
  1.4379194612518935  2.4366055325164826 19.1116462693498050
  2.7096888169583186  4.7266137597689735 21.5240487195097145
  0.9801488932460406  1.2537632741628937 20.2238861212685848
  5.4112913417405357  0.9310408814401104 21.9376071218824826
  7.3820953392881545  4.1391424224183417 21.7884480237492042
  3.6355166833864319  4.2462739492836805 21.8730282173256931
  2.7941404384948694  0.0246045550163785 12.1468871318032789
  4.2011772728862713  2.4138849197606551 19.0573954971577493
  5.6067760286141173  4.8039179253517501 19.0627851058151272
  2.7866754450953493  4.7934990275925280 19.4326235882541205
  4.1938392036622902  4.0387443369961344 16.8063392794023443
  2.7995947009876385  4.8329206514029002 12.1552829697883826
  5.6004203994120800  1.6100960947162581 16.7979696397345251
  5.5890812916669068  3.2351444607213109 14.4676909960137543
  2.8067402733278644  3.2360019876132649 14.4962840386935223
  4.2006626017007456  0.8318185105896765 14.4691219650675027
  1.4196579972003418  0.8255835184661907 14.4905134211503217
  4.1790386504535739  2.4305149822182415 12.1379394576145803
  1.4110766807364348  2.4257043276659980 12.1468718508934685
  2.8174214631717303  1.6198355196887173 16.7655315448424034
  7.0082764166274671  4.0374722554420837 16.8144805356346474
