Au  C  H Ir Pt                          
   1.00000000000000     
     5.5578593001262604    0.0000000000000000    0.0000000000000000
     2.7789296500631302    4.8132473445689401    0.0000000000000000
     0.0000000000000000    0.0000000000000000   30.8069596737456983
   Au   C    H    Ir   Pt
     1     1     4     1    14
Direct
  0.8404010849285726  0.3345134748857248  0.5452654146215536
  0.9965413105007457  0.9820010112512279  0.6986748756597692
  0.0461127775224881  0.2604817879508303  0.6564713407439484
  0.8769122021681639  0.1934330016284420  0.7120990631405348
  0.8982523806202352  0.8599479989510144  0.7072573293338564
  0.2130189362094370  0.8822056390006594  0.7100028191346084
  0.5001808865455999  0.0051118409786568  0.3942903571284617
  0.5051441594798760  0.5015085963708827  0.6186068245286407
  0.0056037044953356  0.5062290296105090  0.6203678153166550
  0.5097705012401192  0.9980617203834896  0.6187817722909159
  0.0034451198061376  0.9958970907658227  0.6307868025293999
  0.0016745047734190  0.0040873251311595  0.3945628876888918
  0.3386571858330001  0.3365369372750919  0.5442124676499773
  0.6695509125820394  0.6721334328209210  0.4696241092672153
  0.1688480409462443  0.6723115925601917  0.4705522450840078
  0.6693965715559500  0.1728185673915661  0.4696705588055252
  0.1696709253783979  0.1715231857755555  0.4703649296979933
  0.4994333287885482  0.5049636572200527  0.3939999138557866
  0.0019064236087800  0.5039641958984404  0.3942898611071115
  0.3350335035410481  0.8390892983202463  0.5455370947794336
  0.8415543594268513  0.8388250107274828  0.5458013615658501
 
  0.00000000E+00  0.00000000E+00  0.00000000E+00
  0.00000000E+00  0.00000000E+00  0.00000000E+00
  0.00000000E+00  0.00000000E+00  0.00000000E+00
  0.00000000E+00  0.00000000E+00  0.00000000E+00
  0.00000000E+00  0.00000000E+00  0.00000000E+00
  0.00000000E+00  0.00000000E+00  0.00000000E+00
  0.00000000E+00  0.00000000E+00  0.00000000E+00
  0.00000000E+00  0.00000000E+00  0.00000000E+00
  0.00000000E+00  0.00000000E+00  0.00000000E+00
  0.00000000E+00  0.00000000E+00  0.00000000E+00
  0.00000000E+00  0.00000000E+00  0.00000000E+00
  0.00000000E+00  0.00000000E+00  0.00000000E+00
  0.00000000E+00  0.00000000E+00  0.00000000E+00
  0.00000000E+00  0.00000000E+00  0.00000000E+00
  0.00000000E+00  0.00000000E+00  0.00000000E+00
  0.00000000E+00  0.00000000E+00  0.00000000E+00
  0.00000000E+00  0.00000000E+00  0.00000000E+00
  0.00000000E+00  0.00000000E+00  0.00000000E+00
  0.00000000E+00  0.00000000E+00  0.00000000E+00
  0.00000000E+00  0.00000000E+00  0.00000000E+00
  0.00000000E+00  0.00000000E+00  0.00000000E+00
