Au  C  H Ir Pt                          
   1.00000000000000     
     5.5578593001262604    0.0000000000000000    0.0000000000000000
     2.7789296500631302    4.8132473445689401    0.0000000000000000
     0.0000000000000000    0.0000000000000000   30.8069596737456983
   Au   C    H    Ir   Pt
     1     1     4     1    14
Direct
  0.8428045841973315  0.3211131894791919  0.5436751385056837
  0.0029679867257926  0.9794704178481695  0.6933806235728213
  0.0351431717511730  0.4647511522072065  0.6709906101772845
  0.9221204966255883  0.1924133753849233  0.7053328129121468
  0.8663369179856204  0.8998969693802152  0.7036227185268515
  0.2162618854269382  0.8428260967524750  0.7050211030405151
  0.4970608316855376  0.0013028055705604  0.3924142182405035
  0.5164039801088123  0.4824470646794765  0.6171278605656028
  0.0157476812066406  0.4821584380171871  0.6206782685436565
  0.5160745328026337  0.9822368360800482  0.6171542822086096
  0.0136406631351633  0.9828081605128887  0.6261181228006407
  0.0004331390098287  0.9997992881055282  0.3926280043025372
  0.3407675004634854  0.3230071268844057  0.5429830216964930
  0.6686146429920541  0.6628193642376701  0.4677975917116513
  0.1683754357128677  0.6629256708055848  0.4691031969272146
  0.6688711850207554  0.1626893470309980  0.4675148511705558
  0.1684478625425854  0.1625987876716337  0.4690447146590770
  0.4969651988724593  0.5015526404472581  0.3924076873134794
  0.0002388612571949  0.4999222694350109  0.3925925982735095
  0.3374198858407311  0.8246720815330235  0.5440616727628722
  0.8428296615950117  0.8227833015949955  0.5438011727612633
 
  0.00000000E+00  0.00000000E+00  0.00000000E+00
  0.00000000E+00  0.00000000E+00  0.00000000E+00
  0.00000000E+00  0.00000000E+00  0.00000000E+00
  0.00000000E+00  0.00000000E+00  0.00000000E+00
  0.00000000E+00  0.00000000E+00  0.00000000E+00
  0.00000000E+00  0.00000000E+00  0.00000000E+00
  0.00000000E+00  0.00000000E+00  0.00000000E+00
  0.00000000E+00  0.00000000E+00  0.00000000E+00
  0.00000000E+00  0.00000000E+00  0.00000000E+00
  0.00000000E+00  0.00000000E+00  0.00000000E+00
  0.00000000E+00  0.00000000E+00  0.00000000E+00
  0.00000000E+00  0.00000000E+00  0.00000000E+00
  0.00000000E+00  0.00000000E+00  0.00000000E+00
  0.00000000E+00  0.00000000E+00  0.00000000E+00
  0.00000000E+00  0.00000000E+00  0.00000000E+00
  0.00000000E+00  0.00000000E+00  0.00000000E+00
  0.00000000E+00  0.00000000E+00  0.00000000E+00
  0.00000000E+00  0.00000000E+00  0.00000000E+00
  0.00000000E+00  0.00000000E+00  0.00000000E+00
  0.00000000E+00  0.00000000E+00  0.00000000E+00
  0.00000000E+00  0.00000000E+00  0.00000000E+00
