Au  C  H Ir Pt 
 1.0000000000000000
     5.5578593001262604    0.0000000000000000    0.0000000000000000
     2.7789296500631302    4.8132473445689401    0.0000000000000000
     0.0000000000000000    0.0000000000000000   30.8069596737456983
   1   1   4   1  14
Cartesian
  5.5786777545281723  1.5766549839136468 16.7827098112754314
  2.6962040077074656  4.6954192194165767 21.4530131340841841
  1.2783127066411839  1.7669335414897065 20.5614034613417758
  5.3966846420173749  0.9085955786773109 21.8426845563313563
  7.3716773517009377  4.1139741460295873 21.7526641544375465
  3.6174946749761352  4.2165988046183891 21.8182796256376363
  2.7844398655655538  0.0269345326853639 12.1368843058077118
  4.1974482435780009  2.3600524531969245 19.0541842759737996
  1.4130290814350335  2.3577662830604913 19.1260670766113243
  5.5913578254321123  4.7607895630517065 19.0583369616371918
  2.7831985903318932  4.7451072831264192 19.3744375470318921
  2.7944648070849398  4.8337046860301127 12.1427490889448944
  2.8028855669769746  1.5887932154470192 16.7599886536864489
  5.5739206504062233  3.2240205204876844 14.4575988969244413
  2.7908938364699676  3.2246672111851784 14.4948406466551276
  4.1860472254043009  0.8205513861487376 14.4473077936177248
  1.4044917130029835  0.8127588960764788 14.4871579677797033
  4.1708745285511801  2.4369076681758668 12.1266601723451188
  1.4050979757417050  2.4278222668018663 12.1388702312441676
  4.1742556937142972  4.0073308296776666 16.8061799872519302
  6.9821979379702954  3.9942656410685045 16.8090248098568509
