Au  C  H Ir Pt 
 1.0000000000000000
     5.5578593001262604    0.0000000000000000    0.0000000000000000
     2.7789296500631302    4.8132473445689401    0.0000000000000000
     0.0000000000000000    0.0000000000000000   30.8069596737456983
   1   1   4   1  14
Cartesian
  4.2033109282917698  2.4027718976103780 18.9363249314694890
  5.6834255270371807  0.2166585273354446 22.1948037706521362
  0.6187022074996920  0.8247391667078158 21.4163448923290751
  5.2051322986323711  0.8917985365274294 22.9180088945628668
  7.6958588127869341  4.3896143854628722 21.7311508176368804
  3.6596465484366592  4.4004024875099894 22.6849521525713911
  2.7829743607213877  0.0002276857111052 11.9966435423387097
  1.4265385104646051  2.4029744559199124 18.9374789301327908
  2.8156567372689771 -0.0039869707638546 18.9378317851765736
  0.0361764494476343 -0.0044366358976178 18.9286604852780869
  4.1939933325090992  4.0089187703567406 16.6133178644365671
  2.7831792103056991  4.8141960888658994 11.9951029901562780
  5.5834906078324753  1.6025414231506805 16.6127071104124440
  5.5722890586603029  3.2087336713658265 14.3229392004310991
  2.7933081175265926  3.2081725933620420 14.3189312152989761
  4.1826641777950542  0.8018798955651202 14.3187005295389973
  1.4037805197862676  0.8017887098159552 14.3195805111267660
  4.1732875819355906  2.4079312929190149 11.9964254299715680
  1.3929759193425328  2.4077325017123328 11.9967917203275469
  2.8046828641730572  1.6017618602091857 16.6163933798260040
  6.9730495886271777  4.0089679419062927 16.6130112121585825
