Pt   C    H                             
   1.00000000000000     
     5.5578593001262604    0.0000000000000000    0.0000000000000000
     2.7789296500631302    4.8132473445689401    0.0000000000000000
     0.0000000000000000    0.0000000000000000   30.8069596737456983
   Pt   C    H 
    16     1     4
Direct
  0.0013979260327590  1.0015148541964918  0.3908121808945728
  0.5014722970282409  0.0012601440861622  0.3909139011097700
  0.0011670001951564  0.5015451773697911  0.3909000017194764
  0.5015522717716759  0.5016090026268154  0.3908683613308997
  0.1702549081925548  0.1674809486232543  0.4662004118451509
  0.6702548150785718  0.1675408466425177  0.4661639906469338
  0.1703836882976341  0.6673665242804101  0.4661620770061596
  0.6702907001212750  0.6676620138961252  0.4663762357854112
  0.8390724774802643  0.3332126677125772  0.5404217583512183
  0.3393297570436378  0.3326820951954204  0.5406711030789908
  0.8393374999670986  0.8330932606075381  0.5404969168395786
  0.3391394667847267  0.8330247181344845  0.5404819276820878
  0.0075815711276746 -0.0019108463208297  0.6153583977022379
  0.5079664924362273  0.9982153579300771  0.6158653397428719
  0.0078955422979554  0.4986984146792107  0.6157971470501649
  0.5070119463869035  0.4984955235645346  0.6157560551985588
  1.0025466490309454  0.0441612652981362  0.7127495755814116
  0.9079457329120824  0.9191927048534616  0.7032355813031829
  0.8677789003071804  0.2043092371652671  0.7361520946460225
  0.2120259352813011  0.9090662243047533  0.7256931700511224
  0.0213365116090484  0.1552795247080353  0.6840480282884690
 
             NaN             NaN             NaN
             NaN             NaN             NaN
             NaN             NaN             NaN
             NaN             NaN             NaN
             NaN             NaN             NaN
             NaN             NaN             NaN
             NaN             NaN             NaN
             NaN             NaN             NaN
             NaN             NaN             NaN
             NaN             NaN             NaN
             NaN             NaN             NaN
             NaN             NaN             NaN
             NaN             NaN             NaN
             NaN             NaN             NaN
             NaN             NaN             NaN
             NaN             NaN             NaN
             NaN             NaN             NaN
             NaN             NaN             NaN
             NaN             NaN             NaN
             NaN             NaN             NaN
             NaN             NaN             NaN
