Pt   C    H 
1
   5.5578593001262604   0.0000000000000000   0.0000000000000000
   2.7789296500631302   4.8132473445689401   0.0000000000000000
   0.0000000000000000   0.0000000000000000  30.8069596737456983
Pt   C    H 
16  1  4  
Direct
  0.0007054110261735  0.9995038363590349  0.3895759522407780  
  0.4993335436918890  0.0001188143637817  0.3894920241437740  
  0.0006208730764441  0.4995375092224090  0.3895641206855330  
  0.4994124282579690  0.5001322591208320  0.3895292766209110  
  0.1682518045332020  0.1664705692053930  0.4653435851975620  
  0.6683954131446030  0.1663838728348150  0.4647228092536670  
  0.1684363701226400  0.6662764042221370  0.4653274264825490  
  0.6684186344818620  0.6664254391168000  0.4648462728951510  
  0.8381660855199740  0.3323111671857980  0.5398650644279130  
  0.3373618772998720  0.3329568368899940  0.5396278345129930  
  0.8380987497722040  0.8330881959876451  0.5397909548299420  
  0.3362768430699100  0.8334604756128350  0.5399253504553710  
  0.0065570375742135  0.0000359804157912  0.6174996168248240  
  0.5070048702009210  0.9995346331521310  0.6146720210981220  
  0.0071071318908778  0.4995365275389130  0.6158855199506610  
  0.5073460899835470  0.4992222621011920  0.6146600057999170  
  0.9968259965585670  0.0104925710851595  0.7205465269018860  
  0.9433383461615140  0.8853616941555510  0.7127340184530300  
  0.8609718484278710  0.1483217544175380  0.7368978440634490  
  0.1799869637114440  0.9017212421443420  0.7391227814638580  
  0.0096851461187498  0.2752472043752130  0.6970992384524750  
