Pt   C    H 
   1.00000000000000     
   5.5578593001262604   0.0000000000000000   0.0000000000000000
   2.7789296500631302   4.8132473445689401   0.0000000000000000
   0.0000000000000000   0.0000000000000000  30.8069596737456983
Pt   C    H 
16  1  4  
Direct
  0.0000000000000000  0.0000000000000000  0.3895223717979093  
  0.5000000000000000  0.0000000000000000  0.3895223717979093  
  0.0000000000000000  0.5000000000000000  0.3895223717979093  
  0.5000000000000000  0.5000000000000000  0.3895223717979093  
  0.1666751154945719  0.1689106140516384  0.4648820042678314  
  0.6665277092574983  0.1689346856239439  0.4648720359392194  
  0.1668460506244165  0.6685648366030851  0.4648762485394083  
  0.6666875103753406  0.6688660086584665  0.4649212472149123  
  0.8334520405880254  0.3378385749534720  0.5393834660266206  
  0.3333747309383892  0.3378154040758096  0.5394046342711785  
  0.8336671513486633  0.8379376656550374  0.5393593298296151  
  0.3332216416494688  0.8379320775131464  0.5393730032513041  
  0.0001861656285347  0.0068881706787634  0.6147839475805218  
  0.5000470815447964  0.0068397806364733  0.6149434599967274  
  0.0004719717437117  0.5063870267891341  0.6149329985896226  
  0.5001291628786935  0.5064861416602731  0.6149135523730338  
  0.9898653285049540  0.0251916885842848  0.7357299186390833  
  0.0001303362569980  0.8456482665243091  0.7189441567211441  
  0.7945577661816874  0.1352830198293029  0.7541128197334906  
  0.1677867522753661  0.9525475297165650  0.7579472340542869  
  0.9974717262438650  0.1676197243607897  0.7116110070716363  
