 C  O Pd                                
   1.00000000000000     
     5.5720014357499945    0.0000000000000000    0.0000000000000000
     2.7860007178749973    4.8254947932828607    0.0000000000000000
     0.0000000000000000    0.0000000000000000   29.0990402424284973
   C    O    Pd
     1     1    20
Selective dynamics
Direct
  0.1666666666666643  0.1666666666666643  0.7042741401148063   T   T   T
  0.1666666666666643  0.1666666666666643  0.7451049272526900   T   T   T
  0.5000000000000000  0.5000000000000000  0.6570773639204865   T   T   T
 -0.0003626369535451  0.5007252739070904  0.6598027799049083   T   T   T
  0.5007252739070904 -0.0003626369535451  0.6598027799049083   T   T   T
 -0.0003626369535451 -0.0003626369535451  0.6598027799049083   T   T   T
  0.3330986344863020  0.8338027310274031  0.5788591722306696   T   T   T
  0.8333333333333357  0.8333333333333357  0.5802252678260515   T   T   T
  0.3330986344863020  0.3330986344863020  0.5788591722306696   T   T   T
  0.8338027310274031  0.3330986344863020  0.5788591722306696   T   T   T
  0.6664152106843763  0.6664152106843763  0.5003514984405188   T   T   T
  0.8333333333333357  0.3333333333333357  0.3436539458582999   F   F   F
  0.1666666666666643  0.1666666666666643  0.5005667312604462   T   T   T
  0.5000000000000000  0.5000000000000000  0.4218269729291464   F   F   F
  0.0000000000000000  0.5000000000000000  0.4218269729291464   F   F   F
  0.5000000000000000  0.0000000000000000  0.4218269729291464   F   F   F
  0.0000000000000000  0.0000000000000000  0.4218269729291464   F   F   F
  0.3333333333333357  0.8333333333333357  0.3436539458582999   F   F   F
  0.8333333333333357  0.8333333333333357  0.3436539458582999   F   F   F
  0.3333333333333357  0.3333333333333357  0.3436539458582999   F   F   F
  0.6664152106843763  0.1671695786312401  0.5003514984405188   T   T   T
  0.1671695786312401  0.6664152106843763  0.5003514984405188   T   T   T
 
  0.00000000E+00  0.00000000E+00  0.00000000E+00
  0.00000000E+00  0.00000000E+00  0.00000000E+00
  0.00000000E+00  0.00000000E+00  0.00000000E+00
  0.00000000E+00  0.00000000E+00  0.00000000E+00
  0.00000000E+00  0.00000000E+00  0.00000000E+00
  0.00000000E+00  0.00000000E+00  0.00000000E+00
  0.00000000E+00  0.00000000E+00  0.00000000E+00
  0.00000000E+00  0.00000000E+00  0.00000000E+00
  0.00000000E+00  0.00000000E+00  0.00000000E+00
  0.00000000E+00  0.00000000E+00  0.00000000E+00
  0.00000000E+00  0.00000000E+00  0.00000000E+00
  0.00000000E+00  0.00000000E+00  0.00000000E+00
  0.00000000E+00  0.00000000E+00  0.00000000E+00
  0.00000000E+00  0.00000000E+00  0.00000000E+00
  0.00000000E+00  0.00000000E+00  0.00000000E+00
  0.00000000E+00  0.00000000E+00  0.00000000E+00
  0.00000000E+00  0.00000000E+00  0.00000000E+00
  0.00000000E+00  0.00000000E+00  0.00000000E+00
  0.00000000E+00  0.00000000E+00  0.00000000E+00
  0.00000000E+00  0.00000000E+00  0.00000000E+00
  0.00000000E+00  0.00000000E+00  0.00000000E+00
  0.00000000E+00  0.00000000E+00  0.00000000E+00
