Pt                                      
   1.00000000000000     
     5.5437171645025325    0.0000000000000000    0.0000000000000000
     2.7718585822512662    4.8009998958550284    0.0000000000000000
     0.0000000000000000    0.0000000000000000   26.7896391656700033
   Pt
    16
Selective dynamics
Direct
  0.0000000000000000  0.0000000000000000  0.3732786372432599   F   F   F
  0.5000000000000000  0.0000000000000000  0.3732786372432599   F   F   F
  0.0000000000000000  0.5000000000000000  0.3732786372432599   F   F   F
  0.5000000000000000  0.5000000000000000  0.3732786372432599   F   F   F
  0.1666666666666643  0.1666666666666643  0.4577595457477557   F   F   F
  0.6666666666666643  0.1666666666666643  0.4577595457477557   F   F   F
  0.1666666666666643  0.6666666666666643  0.4577595457477557   F   F   F
  0.6666666666666643  0.6666666666666643  0.4577595457477557   F   F   F
  0.8333333333333357  0.3333333333333357  0.5438683826242560   T   T   T
  0.3333333333333357  0.3333333333333357  0.5438683826242560   T   T   T
  0.8333333333333357  0.8333333333333357  0.5438683826242560   T   T   T
  0.3333333333333357  0.8333333333333357  0.5438683826242560   T   T   T
  0.0000000000000000  0.0000000000000000  0.6310255412839758   T   T   T
  0.5000000000000000  0.0000000000000000  0.6310255412839758   T   T   T
  0.0000000000000000  0.5000000000000000  0.6310255412839758   T   T   T
  0.5000000000000000  0.5000000000000000  0.6310255412839758   T   T   T
 
  0.00000000E+00  0.00000000E+00  0.00000000E+00
  0.00000000E+00  0.00000000E+00  0.00000000E+00
  0.00000000E+00  0.00000000E+00  0.00000000E+00
  0.00000000E+00  0.00000000E+00  0.00000000E+00
  0.00000000E+00  0.00000000E+00  0.00000000E+00
  0.00000000E+00  0.00000000E+00  0.00000000E+00
  0.00000000E+00  0.00000000E+00  0.00000000E+00
  0.00000000E+00  0.00000000E+00  0.00000000E+00
  0.00000000E+00  0.00000000E+00  0.00000000E+00
  0.00000000E+00  0.00000000E+00  0.00000000E+00
  0.00000000E+00  0.00000000E+00  0.00000000E+00
  0.00000000E+00  0.00000000E+00  0.00000000E+00
  0.00000000E+00  0.00000000E+00  0.00000000E+00
  0.00000000E+00  0.00000000E+00  0.00000000E+00
  0.00000000E+00  0.00000000E+00  0.00000000E+00
  0.00000000E+00  0.00000000E+00  0.00000000E+00
