Pt  O  H                                
   1.00000000000000     
     5.5437171645025325    0.0000000000000000    0.0000000000000000
     2.7718585822512662    4.8009998958550284    0.0000000000000000
     0.0000000000000000    0.0000000000000000   26.7896391656700033
   Pt   O    H 
    16     1     1
Selective dynamics
Direct
  0.0000000000000000  0.0000000000000000  0.3732786372432599   F   F   F
  0.5000000000000000  0.0000000000000000  0.3732786372432599   F   F   F
  0.0000000000000000  0.5000000000000000  0.3732786372432599   F   F   F
  0.5000000000000000  0.5000000000000000  0.3732786372432599   F   F   F
  0.1666666666666643  0.1666666666666643  0.4577595457477557   F   F   F
  0.6666666666666643  0.1666666666666643  0.4577595457477557   F   F   F
  0.1666666666666643  0.6666666666666643  0.4577595457477557   F   F   F
  0.6666666666666643  0.6666666666666643  0.4577595457477557   F   F   F
  0.8321909030944784  0.3395610189826032  0.5427914132938083   T   T   T
  0.3282480779229249  0.3395610189826032  0.5427914132938083   T   T   T
  0.8244217580938844  0.8511564838122377  0.5489878053071193   T   T   T
  0.3306555308826257  0.8386889382347558  0.5432077285140736   T   T   T
  0.0065538838124108 -0.0178046220704596  0.6343395434682164   T   T   T
  0.5112507382580491 -0.0178046220704596  0.6343395434682164   T   T   T
  0.0054514541827706  0.4890970916344589  0.6290146014704910   T   T   T
  0.5086271956459381  0.4827456087081243  0.6281720509769484   T   T   T
  0.2374842670067503  0.0250314659864994  0.6956434266483343   T   T   T
  0.3288943171246266 -0.1577886342492534  0.7124284956479519   T   T   T
 
  0.00000000E+00  0.00000000E+00  0.00000000E+00
  0.00000000E+00  0.00000000E+00  0.00000000E+00
  0.00000000E+00  0.00000000E+00  0.00000000E+00
  0.00000000E+00  0.00000000E+00  0.00000000E+00
  0.00000000E+00  0.00000000E+00  0.00000000E+00
  0.00000000E+00  0.00000000E+00  0.00000000E+00
  0.00000000E+00  0.00000000E+00  0.00000000E+00
  0.00000000E+00  0.00000000E+00  0.00000000E+00
  0.00000000E+00  0.00000000E+00  0.00000000E+00
  0.00000000E+00  0.00000000E+00  0.00000000E+00
  0.00000000E+00  0.00000000E+00  0.00000000E+00
  0.00000000E+00  0.00000000E+00  0.00000000E+00
  0.00000000E+00  0.00000000E+00  0.00000000E+00
  0.00000000E+00  0.00000000E+00  0.00000000E+00
  0.00000000E+00  0.00000000E+00  0.00000000E+00
  0.00000000E+00  0.00000000E+00  0.00000000E+00
  0.00000000E+00  0.00000000E+00  0.00000000E+00
  0.00000000E+00  0.00000000E+00  0.00000000E+00
