KPOINTS created by Atomic Simulation Environment
0
Monkhorst-Pack
8 8 1
0.0 0.0 0.0
