Pt  O  H 
 1.0000000000000000
     5.5437171645025325    0.0000000000000000    0.0000000000000000
     2.7718585822512662    4.8009998958550284    0.0000000000000000
     0.0000000000000000    0.0000000000000000   26.7896391656700033
  16   1   1
Selective dynamics
Cartesian
  0.0000000000000000  0.0000000000000000 10.0000000000000018   F   F   F
  2.7718585822512662  0.0000000000000000 10.0000000000000018   F   F   F
  1.3859292911256331  2.4004999479275142 10.0000000000000018   F   F   F
  4.1577878733768996  2.4004999479275142 10.0000000000000018   F   F   F
  1.3859292911256331  0.8001666493091714 12.2632130552233356   F   F   F
  4.1577878733768996  0.8001666493091714 12.2632130552233356   F   F   F
  2.7718585822512662  3.2006665972366855 12.2632130552233356   F   F   F
  5.5437171645025325  3.2006665972366855 12.2632130552233356   F   F   F
  0.0000000000000000  1.6003332986183427 14.5264261104466676   T   T   T
  2.7718585822512662  1.6003332986183427 14.5264261104466676   T   T   T
  1.3859292911256329  4.0008332465458567 14.5264261104466676   T   T   T
  4.1577878733768987  4.0008332465458567 14.5264261104466676   T   T   T
  0.0000000000000000  0.0000000000000000 16.7896391656700033   T   T   T
  2.7718585822512662  0.0000000000000000 16.7896391656700033   T   T   T
  1.3859292911256331  2.4004999479275142 16.7896391656700033   T   T   T
  4.1577878733768996  2.4004999479275142 16.7896391656700033   T   T   T
  1.3859292911256331  0.0000000000000000 17.9896391656700025   T   T   T
  1.3859292911256331  0.0000000000000000 18.9896391656700025   T   T   T
