Ag Pd Rh                                
   1.00000000000000     
     5.5720014357499945    0.0000000000000000    0.0000000000000000
     2.7860007178749973    4.8254947932828607    0.0000000000000000
     0.0000000000000000    0.0000000000000000   29.0990402424284973
   Ag   Pd   Rh
     1    18     1
Selective dynamics
Direct
  0.8333333333333357  0.8333333333333357  0.5779955765200100   T   T   T
  0.8333333333333357  0.3333333333333357  0.3436539458582999   F   F   F
  0.3333333333333357  0.3333333333333357  0.3436539458582999   F   F   F
  0.8333333333333357  0.8333333333333357  0.3436539458582999   F   F   F
  0.3333333333333357  0.8333333333333357  0.3436539458582999   F   F   F
  0.0000000000000000  0.0000000000000000  0.4218269729291464   F   F   F
  0.5000000000000000  0.0000000000000000  0.4218269729291464   F   F   F
  0.5000000000000000  0.5000000000000000  0.4218269729291464   F   F   F
  0.1666666666666643  0.1666666666666643  0.4999884551214322   T   T   T
  0.6666666666666643  0.1666666666666643  0.4999884551214322   T   T   T
  0.1666666666666643  0.6666666666666643  0.4999884551214322   T   T   T
  0.6666666666666643  0.6666666666666643  0.4999884551214322   T   T   T
  0.8333333333333357  0.3333333333333357  0.5779955765200100   T   T   T
  0.3333333333333357  0.3333333333333357  0.5779955765200100   T   T   T
  0.3333333333333357  0.8333333333333357  0.5779955765200100   T   T   T
  0.0000000000000000  0.0000000000000000  0.6563876931285577   T   T   T
  0.5000000000000000  0.0000000000000000  0.6563876931285577   T   T   T
  0.0000000000000000  0.5000000000000000  0.6563876931285577   T   T   T
  0.5000000000000000  0.5000000000000000  0.6563876931285577   T   T   T
  0.0000000000000000  0.5000000000000000  0.4218269729291464   F   F   F
 
  0.00000000E+00  0.00000000E+00  0.00000000E+00
  0.00000000E+00  0.00000000E+00  0.00000000E+00
  0.00000000E+00  0.00000000E+00  0.00000000E+00
  0.00000000E+00  0.00000000E+00  0.00000000E+00
  0.00000000E+00  0.00000000E+00  0.00000000E+00
  0.00000000E+00  0.00000000E+00  0.00000000E+00
  0.00000000E+00  0.00000000E+00  0.00000000E+00
  0.00000000E+00  0.00000000E+00  0.00000000E+00
  0.00000000E+00  0.00000000E+00  0.00000000E+00
  0.00000000E+00  0.00000000E+00  0.00000000E+00
  0.00000000E+00  0.00000000E+00  0.00000000E+00
  0.00000000E+00  0.00000000E+00  0.00000000E+00
  0.00000000E+00  0.00000000E+00  0.00000000E+00
  0.00000000E+00  0.00000000E+00  0.00000000E+00
  0.00000000E+00  0.00000000E+00  0.00000000E+00
  0.00000000E+00  0.00000000E+00  0.00000000E+00
  0.00000000E+00  0.00000000E+00  0.00000000E+00
  0.00000000E+00  0.00000000E+00  0.00000000E+00
  0.00000000E+00  0.00000000E+00  0.00000000E+00
  0.00000000E+00  0.00000000E+00  0.00000000E+00
