Ag Pd Rh 
 1.0000000000000000
     5.5720014357499945    0.0000000000000000    0.0000000000000000
     2.7860007178749973    4.8254947932828607    0.0000000000000000
     0.0000000000000000    0.0000000000000000   29.0990402424284973
   1  18   1
Selective dynamics
Cartesian
  6.9650017946875131  4.0212456610690621 16.8191165411014225   T   T   T
  5.5720014357500149  1.6084982644276316 10.0000000000000124   F   F   F
  2.7860007178750168  1.6084982644276316 10.0000000000000124   F   F   F
  6.9650017946875131  4.0212456610690621 10.0000000000000124   F   F   F
  4.1790010768125159  4.0212456610690621 10.0000000000000124   F   F   F
  0.0000000000000000  0.0000000000000000 12.2747600606070275   F   F   F
  2.7860007178749973  0.0000000000000000 12.2747600606070275   F   F   F
  4.1790010768124954  2.4127473966414303 12.2747600606070275   F   F   F
  1.3930003589374789  0.8042491322137987 14.5491841763282999   T   T   T
  4.1790010768124759  0.8042491322137987 14.5491841763282999   T   T   T
  2.7860007178749777  3.2169965288552289 14.5491841763282999   T   T   T
  5.5720014357499750  3.2169965288552289 14.5491841763282999   T   T   T
  5.5720014357500149  1.6084982644276316 16.8191165411014225   T   T   T
  2.7860007178750168  1.6084982644276316 16.8191165411014225   T   T   T
  4.1790010768125159  4.0212456610690621 16.8191165411014225   T   T   T
  0.0000000000000000  0.0000000000000000 19.1002518969827761   T   T   T
  2.7860007178749973  0.0000000000000000 19.1002518969827761   T   T   T
  1.3930003589374986  2.4127473966414303 19.1002518969827761   T   T   T
  4.1790010768124954  2.4127473966414303 19.1002518969827761   T   T   T
  1.3930003589374986  2.4127473966414303 12.2747600606070275   F   F   F
