Pt   C    H                             
   1.00000000000000     
     5.5578593001262604    0.0000000000000000    0.0000000000000000
     2.7789296500631302    4.8132473445689401    0.0000000000000000
     0.0000000000000000    0.0000000000000000   30.8069596737456983
   Pt   C    H 
    16     1     4
Direct
  0.0029108467040044  1.0035852844383164  0.3944832967950377
  0.5021660706066683  0.0039492736482471  0.3944178355471637
  0.0029483021368121  0.5036276318504991  0.3943488485022313
  0.5014223191413900  0.5037857358490984  0.3939038088492351
  0.1715136717653778  0.1705229452747444  0.4700426588196325
  0.6716209318345885  0.1707341789200156  0.4698419122389848
  0.1711240798493526  0.6707652748327430  0.4703438727648326
  0.6717824942328283  0.6708214407066456  0.4698511893816847
  0.8405326894049554  0.3335807993388569  0.5444737801120416
  0.3393418878670886  0.3324435577058991  0.5442705459452517
  0.8449898471182566  0.8351131706495191  0.5463015925384971
  0.3382996013860294  0.8349288568061090  0.5446108627510384
  0.0010761469667984  0.9901018093702284  0.6255336902309039
  0.5064268441432771  0.9912014902874590  0.6187721511634001
  0.0053433174770007  0.4911985403162414  0.6210538774045279
  0.5017359158223378  0.4948243493844634  0.6183259361987009
  0.0045518838824300  0.0180923857204130  0.6982689841974313
  0.8968358426278527  0.8990291076023867  0.7019282605116561
  0.8855597769098926  0.2154209288691724  0.7160568438794873
  0.2199052678736060  0.9025019236455690  0.7096810577524236
  0.0108288963489307  0.1993389054179434  0.6648486576867693
 
             NaN             NaN             NaN
             NaN             NaN             NaN
             NaN             NaN             NaN
             NaN             NaN             NaN
             NaN             NaN             NaN
             NaN             NaN             NaN
             NaN             NaN             NaN
             NaN             NaN             NaN
             NaN             NaN             NaN
             NaN             NaN             NaN
             NaN             NaN             NaN
             NaN             NaN             NaN
             NaN             NaN             NaN
             NaN             NaN             NaN
             NaN             NaN             NaN
             NaN             NaN             NaN
             NaN             NaN             NaN
             NaN             NaN             NaN
             NaN             NaN             NaN
             NaN             NaN             NaN
             NaN             NaN             NaN
