Pt   C    H 
1
   5.5578593001262604   0.0000000000000000   0.0000000000000000
   2.7789296500631302   4.8132473445689401   0.0000000000000000
   0.0000000000000000   0.0000000000000000  30.8069596737456983
Pt   C    H 
16  1  4  
Direct
  0.0011756850436226  0.9991730605983919  0.3896116725360230  
  0.4988892394864810  0.0001980239396362  0.3894717923743500  
  0.0010347884607401  0.4992291820373490  0.3895919532772810  
  0.4990207137632820  0.5002204318680540  0.3895338798362450  
  0.1693029305589560  0.1648438726412300  0.4656513058173820  
  0.6696405490693400  0.1646833309753960  0.4646233247966320  
  0.1694965831214560  0.6647507826348380  0.4656282117779750  
  0.6695727172195430  0.6647983927556880  0.4647962900153100  
  0.8413087821412720  0.3286262286740150  0.5401861300287750  
  0.3400199748741940  0.3297177920994500  0.5397766346742020  
  0.8410531487212300  0.8298552162093840  0.5400787048301600  
  0.3383136440168710  0.8304794076792940  0.5402935819247490  
  0.0108042855379993  0.9954678535738100  0.6193100629876930  
  0.5116433959716700  0.9946645348292370  0.6144910618323850  
  0.0115305719889886  0.4949695280387660  0.6165205341913530  
  0.5121573747201160  0.4943796757284710  0.6144909747511730  
  0.0014664419276426  0.0006931594190759  0.7104242657437549  
  0.9054770194311910  0.9118373125763790  0.7085939262742880  
  0.9052479032586600  0.1570142441430290  0.7254211936167549  
  0.1881204380021630  0.8678370504295280  0.7265731464035720  
  0.0178274260353394  0.3469988577181620  0.6874247260397000  
