Au  C  H Ir Pt                          
   1.00000000000000     
     5.5578593001262604    0.0000000000000000    0.0000000000000000
     2.7789296500631302    4.8132473445689401    0.0000000000000000
     0.0000000000000000    0.0000000000000000   30.8069596737456983
   Au   C    H    Ir   Pt
     1     1     4     1    14
Direct
  0.0203774521852083  0.4858355290384679  0.6177905626727380
  0.0107473326657939  0.9810943360869118  0.6901797434274926
  0.0341119858685204  0.4905021644040559  0.6680757012141498
  0.9938000129202393  0.1743992235940084  0.7024678927233694
  0.8297543659705440  0.9647885494180386  0.7003137419168013
  0.2043873865835977  0.8000686669998984  0.7014738762829964
  0.4980006310756693  0.0003564430913485  0.3894313288354994
  0.5217799441932556  0.4846945029830323  0.6141529126536867
  0.5209204475131699  0.9849243381834469  0.6141291433009144
  0.0192987814655723  0.9863315998898443  0.6229309553134286
  0.3423872459107926  0.8245172718122120  0.5410300448635041
  0.0021162330785174  0.9985115090771046  0.3896831131265159
  0.8475941753838683  0.3212563516504474  0.5408282612304944
  0.6718808826949072  0.6615443000334622  0.4646963242556268
  0.1716170091190889  0.6616995394602370  0.4662297823688277
  0.6721308209188166  0.1612822472565583  0.4644243558825636
  0.1714051826104637  0.1615904795129026  0.4662667470570199
  0.4982372847739072  0.5003967773624964  0.3895430862669116
  0.0018626192293354  0.4986125276672269  0.3896476184607778
  0.3453361700228399  0.3232397025183644  0.5400742349966237
  0.8469619466192810  0.8233892566528596  0.5406542048305951
 
  0.00000000E+00  0.00000000E+00  0.00000000E+00
  0.00000000E+00  0.00000000E+00  0.00000000E+00
  0.00000000E+00  0.00000000E+00  0.00000000E+00
  0.00000000E+00  0.00000000E+00  0.00000000E+00
  0.00000000E+00  0.00000000E+00  0.00000000E+00
  0.00000000E+00  0.00000000E+00  0.00000000E+00
  0.00000000E+00  0.00000000E+00  0.00000000E+00
  0.00000000E+00  0.00000000E+00  0.00000000E+00
  0.00000000E+00  0.00000000E+00  0.00000000E+00
  0.00000000E+00  0.00000000E+00  0.00000000E+00
  0.00000000E+00  0.00000000E+00  0.00000000E+00
  0.00000000E+00  0.00000000E+00  0.00000000E+00
  0.00000000E+00  0.00000000E+00  0.00000000E+00
  0.00000000E+00  0.00000000E+00  0.00000000E+00
  0.00000000E+00  0.00000000E+00  0.00000000E+00
  0.00000000E+00  0.00000000E+00  0.00000000E+00
  0.00000000E+00  0.00000000E+00  0.00000000E+00
  0.00000000E+00  0.00000000E+00  0.00000000E+00
  0.00000000E+00  0.00000000E+00  0.00000000E+00
  0.00000000E+00  0.00000000E+00  0.00000000E+00
  0.00000000E+00  0.00000000E+00  0.00000000E+00
