Au  C  H Ir Pt                          
   1.00000000000000     
     5.5578593001262604    0.0000000000000000    0.0000000000000000
     2.7789296500631302    4.8132473445689401    0.0000000000000000
     0.0000000000000000    0.0000000000000000   30.8069596737456983
   Au   C    H    Ir   Pt
     1     1     4     1    14
Direct
  0.0044294141443260  0.9944191490355223  0.6181817166740160
  0.0043535892463638  0.0376151606738944  0.7047595815123984
  0.0135831160207900  0.1526479401396870  0.6744901181345071
  0.8788560675925652  0.2151710867745678  0.7260671390411915
  0.9015405586870529  0.9139778686179625  0.7005427570916893
  0.2187614826953279  0.9075882060833820  0.7159100658512187
  0.5022850684765103  0.0029780378525217  0.3932495381011449
  0.5043920446177879  0.4965798046590351  0.6175262540419837
  0.0063692600485368  0.4962420811391866  0.6180471949897424
  0.5061271925912862  0.9956695660178596  0.6178060324715773
  0.3389369730846639  0.8339302734763478  0.5427051516413854
  0.0023191595217185  0.0032570773388798  0.3931259482819556
  0.8394085880963544  0.3339276210083426  0.5425902222028469
  0.6713340930811427  0.6697942747346488  0.4687156654811773
  0.1713028617629035  0.6693244627621766  0.4685221432462896
  0.6711953713781256  0.1695534215484003  0.4684475275402420
  0.1710682844839795  0.1693949201225493  0.4685228231923446
  0.5022452122793055  0.5033566571048453  0.3930455763568546
  0.0020803033764523  0.5032464202777689  0.3932013460801542
  0.3395120342864146  0.3327692422451705  0.5428689636442954
  0.8408039322436451  0.8341195128533272  0.5430426471471179
 
  0.00000000E+00  0.00000000E+00  0.00000000E+00
  0.00000000E+00  0.00000000E+00  0.00000000E+00
  0.00000000E+00  0.00000000E+00  0.00000000E+00
  0.00000000E+00  0.00000000E+00  0.00000000E+00
  0.00000000E+00  0.00000000E+00  0.00000000E+00
  0.00000000E+00  0.00000000E+00  0.00000000E+00
  0.00000000E+00  0.00000000E+00  0.00000000E+00
  0.00000000E+00  0.00000000E+00  0.00000000E+00
  0.00000000E+00  0.00000000E+00  0.00000000E+00
  0.00000000E+00  0.00000000E+00  0.00000000E+00
  0.00000000E+00  0.00000000E+00  0.00000000E+00
  0.00000000E+00  0.00000000E+00  0.00000000E+00
  0.00000000E+00  0.00000000E+00  0.00000000E+00
  0.00000000E+00  0.00000000E+00  0.00000000E+00
  0.00000000E+00  0.00000000E+00  0.00000000E+00
  0.00000000E+00  0.00000000E+00  0.00000000E+00
  0.00000000E+00  0.00000000E+00  0.00000000E+00
  0.00000000E+00  0.00000000E+00  0.00000000E+00
  0.00000000E+00  0.00000000E+00  0.00000000E+00
  0.00000000E+00  0.00000000E+00  0.00000000E+00
  0.00000000E+00  0.00000000E+00  0.00000000E+00
