Au  C  H Ir Pt 
 1.0000000000000000
     5.5578593001262604    0.0000000000000000    0.0000000000000000
     2.7789296500631302    4.8132473445689401    0.0000000000000000
     0.0000000000000000    0.0000000000000000   30.8069596737456983
   1   1   4   1  14
Cartesian
  6.9707855854972784  3.9602595415577637 16.7528607997917938
  2.7383750381445835  4.7144333877915221 21.3609489089646054
  5.6597192119334725  0.9261331681310370 21.7291595239541842
  7.3157290668817492  4.3314266982549574 21.6764767151879987
  3.5441075612953856  4.0567304721272608 21.7195566905088455
  1.4868315607227851  2.2369622492466954 20.6711806691936211
  2.7662145711402664  0.0062707254529871 12.0890889967396351
  2.7780307836792049  3.1908252246515789 14.4516432705619433
  5.5579944956700356  3.1903135448458402 14.4114215433361128
  5.5765402597402414  1.5455972065667740 16.7489780675627919
  2.7915519037125565  1.5547131957532234 16.7276560529325558
  1.3880601115437070  0.7826281829906044 14.4498416096858495
  4.1670379495188614  3.9693507065789677 16.7608860128363624
  2.8069676240389314  4.7304987688093352 19.2887957601206530
  5.5978367088624577  4.7277488430000867 19.0126470844800721
  1.4274077758838295  2.3207478214477293 19.1212103893947152
  4.2107871160936874  2.3221370529635545 19.0118331139894892
  4.1558421559987577  2.4140969147943188 12.0888877987341949
  1.3905763745195465  2.4062495358489566 12.0945843432229658
  4.1695941864679451  0.7830640675866016 14.4027111668885777
  2.7807792115025061  4.8122812685758625 12.0956750953314760
