Pt   C    H                             
   1.00000000000000     
     5.5578593001262604    0.0000000000000000    0.0000000000000000
     2.7789296500631302    4.8132473445689401    0.0000000000000000
     0.0000000000000000    0.0000000000000000   30.8069596737456983
   Pt   C    H 
    16     1     4
Direct
  0.0006660482512112  1.0001971110622498  0.3893634138904899
  0.5007040941557429  0.0000473039706472  0.3894134205188215
  0.0005165498418142  0.5002303703401226  0.3894182304056265
  0.5007445585597046  0.5002716711901416  0.3894063405482742
  0.1692859681279533  0.1665795776567890  0.4648164136537692
  0.6692682206165746  0.1665985224029525  0.4647878492775020
  0.1693221717794940  0.6665297591618692  0.4647953373828659
  0.6692731155779570  0.6666463286966590  0.4649254373724322
  0.8381397646541860  0.3329439167423878  0.5392517563026553
  0.3382426796880052  0.3327819547891185  0.5393714133364099
  0.8381771859696359  0.8329029561362223  0.5392616275054406
  0.3381595142650687  0.8328927402578284  0.5392715814989938
  0.0069699393751368 -0.0009217552267751  0.6144280605985752
  0.5070223018867576 -0.0008283328236504  0.6147257628059860
  0.0070495777902399  0.4992418390115199  0.6147143090615230
  0.5066824786912428  0.4991997555084224  0.6146768500368247
  1.0000860705184751  0.0450129635618898  0.7204477171944685
  0.9286873752964624  0.9119860400309414  0.7053974506986679
  0.8438954497100700  0.1852800142368948  0.7439230984579777
  0.2013496433248400  0.9142273755108831  0.7363580305493098
  0.0256463540893287  0.1713477633013013  0.6951787881418402
 
             NaN             NaN             NaN
             NaN             NaN             NaN
             NaN             NaN             NaN
             NaN             NaN             NaN
             NaN             NaN             NaN
             NaN             NaN             NaN
             NaN             NaN             NaN
             NaN             NaN             NaN
             NaN             NaN             NaN
             NaN             NaN             NaN
             NaN             NaN             NaN
             NaN             NaN             NaN
             NaN             NaN             NaN
             NaN             NaN             NaN
             NaN             NaN             NaN
             NaN             NaN             NaN
             NaN             NaN             NaN
             NaN             NaN             NaN
             NaN             NaN             NaN
             NaN             NaN             NaN
             NaN             NaN             NaN
