Pt   C    H 
1
   5.5578593001262604   0.0000000000000000   0.0000000000000000
   2.7789296500631302   4.8132473445689401   0.0000000000000000
   0.0000000000000000   0.0000000000000000  30.8069596737456983
Pt   C    H 
16  1  4  
Direct
  0.0004702740174490  0.9996692242393570  0.3895580920931550  
  0.4995556957945920  0.0000792095758545  0.3895021400284850  
  0.0004139153842960  0.4996916728149390  0.3895502043896580  
  0.4996082855053130  0.5000881727472219  0.3895269750132440  
  0.1677262415203250  0.1672839174874750  0.4651897248876520  
  0.6677728451822350  0.1672341437645250  0.4647725514821840  
  0.1679062636232320  0.6670392150157860  0.4651770338348350  
  0.6678415931130220  0.6672389622973550  0.4648712643350710  
  0.8365947372093240  0.3341536364416890  0.5397045316274820  
  0.3360328285127110  0.3345763592852660  0.5395534344323880  
  0.8366215502976900  0.8347046858767760  0.5396470798298330  
  0.3352584425964300  0.8349510095796050  0.5397412347206820  
  0.0044334135923205  0.0023200438367819  0.6165943937433900  
  0.5046856073155460  0.0019696823135786  0.6147625007309900  
  0.0048954118418225  0.5018200272889870  0.6155680128303150  
  0.5049404476152620  0.5016435552875520  0.6147445213242890  
  0.9945057738740301  0.0153922769182012  0.7256076574809520  
  0.9622690095266750  0.8721238849451370  0.7148040645424020  
  0.8388338210124761  0.1439755095547930  0.7426361692867960  
  0.1759202265660850  0.9186633380017500  0.7453975989940010  
  0.0056140061604551  0.2393713777037380  0.7019364946588620  
