Au  C  H Ir Pt                          
   1.00000000000000     
     5.5578593001262639    0.0000000000000000    0.0000000000000000
     2.7789296500631320    4.8132473445689445    0.0000000000000000
     0.0000000000000000    0.0000000000000000   30.8069596737456877
   Au   C    H    Ir   Pt
     1     1     4     1    14
Selective dynamics
Direct
  0.0004719717437141  0.5063870267891346  0.6149329985896230   T   T   T
  0.9898653285049548  0.0251916885842860  0.7357299186390804   T   T   T
  0.9974717262438659  0.1676197243607902  0.7116110070716388   T   T   T
  0.7945577661816898  0.1352830198293020  0.7541128197334928   T   T   T
  0.0001303362570013  0.8456482665243072  0.7189441567211432   T   T   T
  0.1677867522753687  0.9525475297165613  0.7579472340542850   T   T   T
  0.5000000000000000  0.0000000000000000  0.3895223717979093   F   F   F
  0.5001291628786930  0.5064861416602753  0.6149135523730322   T   T   T
  0.5000470815447997  0.0068397806364757  0.6149434599967307   T   T   T
  0.0001861656285342  0.0068881706787636  0.6147839475805199   T   T   T
  0.3332216416494660  0.8379320775131447  0.5393730032513062   T   T   T
  0.0000000000000000  0.0000000000000000  0.3895223717979093   F   F   F
  0.8334520405880284  0.3378385749534729  0.5393834660266208   T   T   T
  0.6666875103753398  0.6688660086584690  0.4649212472149102   T   T   T
  0.1668460506244145  0.6685648366030819  0.4648762485394116   T   T   T
  0.6665277092575010  0.1689346856239453  0.4648720359392229   T   T   T
  0.1666751154945700  0.1689106140516401  0.4648820042678281   T   T   T
  0.5000000000000000  0.5000000000000000  0.3895223717979093   F   F   F
  0.0000000000000000  0.5000000000000000  0.3895223717979093   F   F   F
  0.3333747309383881  0.3378154040758119  0.5394046342711789   T   T   T
  0.8336671513486635  0.8379376656550406  0.5393593298296153   T   T   T
 
  0.00000000E+00  0.00000000E+00  0.00000000E+00
  0.00000000E+00  0.00000000E+00  0.00000000E+00
  0.00000000E+00  0.00000000E+00  0.00000000E+00
  0.00000000E+00  0.00000000E+00  0.00000000E+00
  0.00000000E+00  0.00000000E+00  0.00000000E+00
  0.00000000E+00  0.00000000E+00  0.00000000E+00
  0.00000000E+00  0.00000000E+00  0.00000000E+00
  0.00000000E+00  0.00000000E+00  0.00000000E+00
  0.00000000E+00  0.00000000E+00  0.00000000E+00
  0.00000000E+00  0.00000000E+00  0.00000000E+00
  0.00000000E+00  0.00000000E+00  0.00000000E+00
  0.00000000E+00  0.00000000E+00  0.00000000E+00
  0.00000000E+00  0.00000000E+00  0.00000000E+00
  0.00000000E+00  0.00000000E+00  0.00000000E+00
  0.00000000E+00  0.00000000E+00  0.00000000E+00
  0.00000000E+00  0.00000000E+00  0.00000000E+00
  0.00000000E+00  0.00000000E+00  0.00000000E+00
  0.00000000E+00  0.00000000E+00  0.00000000E+00
  0.00000000E+00  0.00000000E+00  0.00000000E+00
  0.00000000E+00  0.00000000E+00  0.00000000E+00
  0.00000000E+00  0.00000000E+00  0.00000000E+00
