Au Ir Pt 
 1.0000000000000000
     5.5437171645025325    0.0000000000000000    0.0000000000000000
     2.7718585822512662    4.8009998958550284    0.0000000000000000
     0.0000000000000000    0.0000000000000000   26.7896391656700033
   1   1  14
Selective dynamics
Cartesian
  4.1577878733768996  2.4004999479275142 16.9076690182295657   T   T   T
  2.7718585822512662  0.0000000000000000  9.9999999999999609   F   F   F
  0.0000000000000000  0.0000000000000000  9.9999999999999609   F   F   F
  1.3859292911256331  2.4004999479275142  9.9999999999999609   F   F   F
  4.1577878733768996  2.4004999479275142  9.9999999999999609   F   F   F
  1.3859292911256134  0.8001666493091600 12.2632130552233853   F   F   F
  4.1577878733768801  0.8001666493091600 12.2632130552233853   F   F   F
  2.7718585822512467  3.2006665972366743 12.2632130552233853   F   F   F
  5.5437171645025130  3.2006665972366743 12.2632130552233853   F   F   F
  5.5437171645025529  1.6003332986183543 14.5686271553930684   T   T   T
  2.7718585822512858  1.6003332986183543 14.5686271553930684   T   T   T
  6.9296464556281858  4.0008332465458682 14.5686271553930684   T   T   T
  4.1577878733769191  4.0008332465458682 14.5686271553930684   T   T   T
  0.0000000000000000  0.0000000000000000 16.9076690182295657   T   T   T
  2.7718585822512662  0.0000000000000000 16.9076690182295657   T   T   T
  1.3859292911256331  2.4004999479275142 16.9076690182295657   T   T   T
