Pt   C    H 
   1.00000000000000     
   5.5578593001262604   0.0000000000000000   0.0000000000000000
   2.7789296500631302   4.8132473445689401   0.0000000000000000
   0.0000000000000000   0.0000000000000000  30.8069596737456983
Pt   C    H 
16  1  4  
Direct
  0.0021162330785206  0.9985115090771060  0.3896831131265145  
  0.4980006310756659  0.0003564430913451  0.3894313288355020  
  0.0018626192293322  0.4986125276672275  0.3896476184607794  
  0.4982372847739074  0.5003967773624969  0.3895430862669144  
  0.1714051826104630  0.1615904795129024  0.4662667470570234  
  0.6721308209188138  0.1612822472565576  0.4644243558825613  
  0.1716170091190871  0.6616995394602405  0.4662297823688293  
  0.6718808826949050  0.6615443000334655  0.4646963242556275  
  0.8475941753838703  0.3212563516504499  0.5408282612304977  
  0.3453361700228389  0.3232397025183614  0.5400742349966214  
  0.8469619466192839  0.8233892566528611  0.5406542048305952  
  0.3423872459107930  0.8245172718122116  0.5410300448635041  
  0.0192987814655710  0.9863315998898468  0.6229309553134287  
  0.5209204475131697  0.9849243381834472  0.6141291433009112  
  0.0203774521852101  0.4858355290384714  0.6177905626727379  
  0.5217799441932536  0.4846945029830295  0.6141529126536843  
  0.0107473326657933  0.9810943360869088  0.6901797434274911  
  0.8297543659705461  0.9647885494180354  0.7003137419168030  
  0.9938000129202380  0.1743992235940094  0.7024678927233662  
  0.2043873865835999  0.8000686669998982  0.7014738762830000  
  0.0341119858685185  0.4905021644040591  0.6680757012141519  
