Au  C  H Ir Pt 
 1.0000000000000000
     5.5578593001262604    0.0000000000000000    0.0000000000000000
     2.7789296500631302    4.8132473445689401    0.0000000000000000
     0.0000000000000000    0.0000000000000000   30.8069596737456983
   1   1   4   1  14
Cartesian
  5.6035579712626342  1.5462862815074336 16.6612744341499450
  2.7861243028690419  4.7222497079419403 21.2623395234068724
  1.5526606259877009  2.3609082403231549 20.5813811863137595
  6.0080438176677253  0.8394265998587506 21.6409000432298626
  7.2927375257489437  4.6437659235568782 21.5745372062009011
  3.3592908781646642  3.8509283869100717 21.6102774188364570
  2.7688079691677356  0.0017156487629067 11.9971952431285107
  4.2469114410159889  2.3329545294102290 18.9201840136355166
  1.4633577688395631  2.3384465700416688 19.0322489510797013
  5.6322380002837900  4.7406844553627980 18.9194517521431642
  2.8482060397776272  4.7474579540342399 19.1906088198686824
  0.0076253141372106 -0.0071644749820345 12.0049519516282146
  2.8175902376372788  1.5558326398057574 16.6380451783699748
  5.5726044826561747  3.1841763454507963 14.3158809218809715
  2.7926396598315519  3.1849235512094931 14.3631221041357566
  4.1838005528751880  0.7762913483337370 14.3075024031793863
  1.4016944629477250  0.7777749464230992 14.3642608737943061
  4.1597001682589987  2.4085334598708932 12.0006381498112749
  1.3959613126337194  2.3999454247630903 12.0038584688922807
  4.1942156325580342  3.9686055691013542 16.6674907743947998
  6.9954361507271052  3.9631761531309770 16.6559122856571946
