Au  C  H Ir Pt 
 1.0000000000000000
     5.5578593001262604    0.0000000000000000    0.0000000000000000
     2.7789296500631302    4.8132473445689401    0.0000000000000000
     0.0000000000000000    0.0000000000000000   30.8069596737456983
   1   1   4   1  14
Cartesian
  2.7574043480678041  4.7656049048041549 19.2707911695127905
  0.0755761972878929  0.0870831275256949 21.5115444375976388
  0.6141342769600607  0.9594674571721953 20.4819657865002576
  5.5204562483950665  1.0368742138441187 22.0595343135049866
  7.4828260720218509  4.3272494648573723 21.6242756154450539
  3.7301918930557605  4.3439649874553954 21.8631157274001069
  2.8019431193664586  0.0190088309004014 12.1508143543075349
  4.1636596820382294  2.3817119857028217 19.0487421817044336
  1.3947035944856085  2.3642600698332883 19.1327817564246949
  5.5691283561018867  4.7708979410588883 19.0624887081277450
  4.2004301416641594  4.0187191029259850 16.7778048866550940
  2.8050709797177706  4.8305042053711906 12.1528310163309818
  5.5985599988439780  1.6056068966169375 16.7735817873235504
  5.5978381747117041  3.2288295181611728 14.4746866439430129
  2.8150930691317271  3.2285591779177554 14.4898647210595755
  4.2072329142363474  0.8217858333139234 14.4744008433819698
  1.4271201243600875  0.8207691135317382 14.4805852351966262
  4.1868198183607834  2.4248453553073821 12.1349787545532202
  1.4159320071910935  2.4240843616559586 12.1486890731962909
  2.8098517268858969  1.6001330713469701 16.7673207605429262
  7.0170554313946489  4.0196062510433457 16.8298911310365327
