Au  C  H Ir Pt                          
   1.00000000000000     
     5.5578593001262604    0.0000000000000000    0.0000000000000000
     2.7789296500631302    4.8132473445689401    0.0000000000000000
     0.0000000000000000    0.0000000000000000   30.8069596737456983
   Au   C    H    Ir   Pt
     1     1     4     1    14
Direct
  0.5017359158223371  0.4948243493844657  0.6183259361987012
  0.0045518838824279  0.0180923857204149  0.6982689841974334
  0.0108288963489329  0.1993389054179460  0.6648486576867683
  0.8855597769098935  0.2154209288691717  0.7160568438794854
  0.8968358426278513  0.8990291076023880  0.7019282605116572
  0.2199052678736066  0.9025019236455663  0.7096810577524266
  0.5021660706066697  0.0039492736482458  0.3944178355471664
  0.0053433174769992  0.4911985403162404  0.6210538774045276
  0.5064268441432773  0.9912014902874589  0.6187721511633981
  0.0010761469667955  0.9901018093702305  0.6255336902309026
  0.3382996013860264  0.8349288568061084  0.5446108627510355
  0.0029108467040047  0.0035852844383157  0.3944832967950376
  0.8405326894049523  0.3335807993388542  0.5444737801120425
  0.6717824942328292  0.6708214407066464  0.4698511893816857
  0.1711240798493492  0.6707652748327462  0.4703438727648290
  0.6716209318345889  0.1707341789200143  0.4698419122389836
  0.1715136717653749  0.1705229452747474  0.4700426588196294
  0.5014223191413905  0.5037857358490996  0.3939038088492381
  0.0029483021368151  0.5036276318504989  0.3943488485022328
  0.3393418878670857  0.3324435577059006  0.5442705459452526
  0.8449898471182564  0.8351131706495210  0.5463015925384980
 
  0.00000000E+00  0.00000000E+00  0.00000000E+00
  0.00000000E+00  0.00000000E+00  0.00000000E+00
  0.00000000E+00  0.00000000E+00  0.00000000E+00
  0.00000000E+00  0.00000000E+00  0.00000000E+00
  0.00000000E+00  0.00000000E+00  0.00000000E+00
  0.00000000E+00  0.00000000E+00  0.00000000E+00
  0.00000000E+00  0.00000000E+00  0.00000000E+00
  0.00000000E+00  0.00000000E+00  0.00000000E+00
  0.00000000E+00  0.00000000E+00  0.00000000E+00
  0.00000000E+00  0.00000000E+00  0.00000000E+00
  0.00000000E+00  0.00000000E+00  0.00000000E+00
  0.00000000E+00  0.00000000E+00  0.00000000E+00
  0.00000000E+00  0.00000000E+00  0.00000000E+00
  0.00000000E+00  0.00000000E+00  0.00000000E+00
  0.00000000E+00  0.00000000E+00  0.00000000E+00
  0.00000000E+00  0.00000000E+00  0.00000000E+00
  0.00000000E+00  0.00000000E+00  0.00000000E+00
  0.00000000E+00  0.00000000E+00  0.00000000E+00
  0.00000000E+00  0.00000000E+00  0.00000000E+00
  0.00000000E+00  0.00000000E+00  0.00000000E+00
  0.00000000E+00  0.00000000E+00  0.00000000E+00
