Au  C  H Ir Pt 
 1.0000000000000000
     5.5578593001262604    0.0000000000000000    0.0000000000000000
     2.7789296500631302    4.8132473445689401    0.0000000000000000
     0.0000000000000000    0.0000000000000000   30.8069596737456983
   1   1   4   1  14
Cartesian
  1.4297301241817686  2.4003588201954513 18.9708378763820775
  5.6947342666483527  0.2125590929290586 21.9576474324159108
  0.5500962047374713  0.7473987599668780 21.0734400223881195
  5.3907540284659428  0.9833908932566278 22.6786078935034432
  7.6006064973143825  4.4243018457830656 21.6645501943502694
  3.7046414008625668  4.3755605901721664 22.3564002252776071
  2.7906143215584751  0.0060653851764945 12.0428687873952978
  4.2031850523587977  2.3993822550764996 18.9695719613667322
  5.5971765494394727  4.8046574208648778 18.9729386859163505
  0.0368271981038473 -0.0091973759796129 18.9573213429136089
  4.1998065279687546  4.0095540125210976 16.6506049504904183
  2.7909087995073421  4.8205387125076129 12.0397350968277141
  5.5894213345267829  1.6038349880442948 16.6487513163407250
  5.5807671680939750  3.2136224154550757 14.3676338886344794
  2.8015331883772268  3.2122001508468871 14.3610363077582956
  4.1907661837704193  0.8064155352089304 14.3610952612124567
  1.4116705988399945  0.8061272312267659 14.3622172875971987
  4.1814930883039150  2.4143681999053936 12.0414658452640886
  1.4002447871269832  2.4140609931565051 12.0424405894390336
  2.8104471843782455  1.6012812112849886 16.6564328693140737
  6.9800272933069216  4.0098839243975126 16.6510667208607792
