Au  C  H Ir Pt 
 1.0000000000000000
     5.5578593001262604    0.0000000000000000    0.0000000000000000
     2.7789296500631302    4.8132473445689401    0.0000000000000000
     0.0000000000000000    0.0000000000000000   30.8069596737456983
   1   1   4   1  14
Cartesian
  4.1833003588782072  2.3901614261416535 19.0241064057505724
  5.6865858218966672  0.1810510722291630 21.7115000073384294
  0.4996909345760734  0.7347322925312627 20.7789898697098039
  5.4825036816158672  1.0356716620456927 22.3679210728738056
  7.5505157771438327  4.3992015491201970 21.5815924674582469
  3.7379693170403554  4.3684465228929321 22.0550125287070919
  2.7999054968341204  0.0143340327856903 12.1148226620011883
  1.4144212840824126  2.3885358793065601 19.0401550125206782
  5.5798794030627938  4.7924038947035692 19.0327255285487773
  2.7880389184414978  4.7863853284837203 19.0442992166232301
  4.2011975710639167  4.0139126743656774 16.7190957213502500
  2.8008704011689529  4.8289244634213748 12.1110152354251994
  5.5932761949523053  1.6072762350966341 16.7155550947718829
  5.5924916022254925  3.2238855142740119 14.4397046049314213
  2.8120827984695893  3.2216241930450948 14.4337427732453758
  4.2015864674261119  0.8161025560304207 14.4314440901981698
  1.4215100219745680  0.8153396494633454 14.4337637203159392
  4.1902009629957480  2.4227800931810024 12.1085392207698206
  1.4100484320659268  2.4222494960658012 12.1133380123538110
  2.8117024311676739  1.6017006715907933 16.7241422711180299
  6.9910294003674034  4.0148235302944011 16.7294929317854582
