Pt   C    H                             
   1.00000000000000     
     5.5578593001262604    0.0000000000000000    0.0000000000000000
     2.7789296500631302    4.8132473445689401    0.0000000000000000
     0.0000000000000000    0.0000000000000000   30.8069596737456983
   Pt   C    H 
    16     1     4
Direct
  0.0016745047734223  1.0040873251311631  0.3945628876888931
  0.5001808865456020  0.0051118409786568  0.3942903571284607
  0.0019064236087785  0.5039641958984422  0.3942898611071080
  0.4994333287885490  0.5049636572200532  0.3939999138557893
  0.1696709253783998  0.1715231857755541  0.4703649296979937
  0.6693965715559520  0.1728185673915687  0.4696705588055278
  0.1688480409462439  0.6723115925601931  0.4705522450840075
  0.6695509125820427  0.6721334328209224  0.4696241092672124
  0.8404010849285757  0.3345134748857278  0.5452654146215566
  0.3386571858330010  0.3365369372750955  0.5442124676499747
  0.8415543594268532  0.8388250107274857  0.5458013615658504
  0.3350335035410473  0.8390892983202450  0.5455370947794319
  0.0034451198061379  0.9958970907658224  0.6307868025293969
  0.5097705012401179  0.9980617203834918  0.6187817722909155
  0.0056037044953374  0.5062290296105066  0.6203678153166516
  0.5051441594798736  0.5015085963708843  0.6186068245286418
 -0.0034586894992559  0.9820010112512252  0.6986748756597664
  0.8982523806202345  0.8599479989510139  0.7072573293338567
  0.8769122021681661  0.1934330016284446  0.7120990631405327
  0.2130189362094334  0.8822056390006618  0.7100028191346101
  0.0461127775224905  0.2604817879508282  0.6564713407439482
 
             NaN             NaN             NaN
             NaN             NaN             NaN
             NaN             NaN             NaN
             NaN             NaN             NaN
             NaN             NaN             NaN
             NaN             NaN             NaN
             NaN             NaN             NaN
             NaN             NaN             NaN
             NaN             NaN             NaN
             NaN             NaN             NaN
             NaN             NaN             NaN
             NaN             NaN             NaN
             NaN             NaN             NaN
             NaN             NaN             NaN
             NaN             NaN             NaN
             NaN             NaN             NaN
             NaN             NaN             NaN
             NaN             NaN             NaN
             NaN             NaN             NaN
             NaN             NaN             NaN
             NaN             NaN             NaN
