Pt   C    H 
1
   5.5578593001262604   0.0000000000000000   0.0000000000000000
   2.7789296500631302   4.8132473445689401   0.0000000000000000
   0.0000000000000000   0.0000000000000000  30.8069596737456983
Pt   C    H 
16  1  4  
Direct
  0.0014108220523471  0.9990076727180710  0.3896295326836460  
  0.4986670873837770  0.0002376287275634  0.3894616764896380  
  0.0012417461528881  0.4990750184448180  0.3896058695731560  
  0.4988248565159380  0.5002645182416650  0.3895361814439130  
  0.1698284935718330  0.1640305243591480  0.4658051661272930  
  0.6702631170317080  0.1638330600456860  0.4645735825681140  
  0.1700266896208640  0.6639879718411890  0.4657786044256890  
  0.6701497585883840  0.6639848695751330  0.4647712985753890  
  0.8428801304519220  0.3267837594181240  0.5403466628292060  
  0.3413490236613560  0.3280982697041770  0.5398510347548070  
  0.8425303481957440  0.8282387263202530  0.5402225798302690  
  0.3393320444903520  0.8289888737125229  0.5404776976594380  
  0.0129279095198922  0.9931837901528190  0.6202152860691270  
  0.5139626588570450  0.9922294856677890  0.6144005821995170  
  0.0137422920380440  0.4926860282886920  0.6168380413116999  
  0.5145630170884000  0.4919583825421110  0.6144064592268010  
  0.0037866646121803  0.9957934535860340  0.7053631351646890  
  0.8865463560660301  0.9250751217867940  0.7065238801849170  
  0.9273859306740539  0.1613604890057740  0.7196828683934080  
  0.1921871751475220  0.8508949545721201  0.7202983288734290  
  0.0218985659936342  0.3828746843896360  0.6825874698333130  
