Au  C  H Ir Pt                          
   1.00000000000000     
     5.5578593001262604    0.0000000000000000    0.0000000000000000
     2.7789296500631302    4.8132473445689401    0.0000000000000000
     0.0000000000000000    0.0000000000000000   30.8069596737456983
   Au   C    H    Ir   Pt
     1     1     4     1    14
Direct
  0.5040112693169831  0.0021945551878275  0.6145401214642945
  0.9955092606874487  0.0369688437349112  0.7282772786918130
  0.0163404392351794  0.1740763265076453  0.7046151783958550
  0.8160487942654768  0.1624073927502110  0.7493792033186821
  0.9628530607088237  0.8826473964337112  0.7108791240407584
  0.1866269876675801  0.9294269590136963  0.7476809377981581
  0.5002898837798355  0.0000219030309694  0.3890503444520732
  0.5039038984051700  0.5021463631136029  0.6145192839276561
  0.0040555141152083  0.5021548662601774  0.6145715840111166
  0.0040226414487563  0.0021314568403810  0.6144468627343116
  0.3360423426661185  0.8348593048927881  0.5390640722216204
  0.0002842345638001  0.0001005317461988  0.3890261099187668
  0.8360809710286858  0.3348308418315611  0.5390591895468049
  0.6680679305843640  0.6674500390516656  0.4645743241248965
  0.1680885654790103  0.6674071886475659  0.4645053656388924
  0.6680659122782586  0.1674317563102008  0.4644888038966286
  0.1680785775238220  0.1674250743672658  0.4645134596380345
  0.5003053526964152  0.5001629427991645  0.3890489763891196
  0.0001913756064624  0.5001319633961288  0.3890587361823208
  0.3360931834564269  0.3348145832311999  0.5391106755464463
  0.8360787062033168  0.8348553345378633  0.5390627997740580
 
  0.00000000E+00  0.00000000E+00  0.00000000E+00
  0.00000000E+00  0.00000000E+00  0.00000000E+00
  0.00000000E+00  0.00000000E+00  0.00000000E+00
  0.00000000E+00  0.00000000E+00  0.00000000E+00
  0.00000000E+00  0.00000000E+00  0.00000000E+00
  0.00000000E+00  0.00000000E+00  0.00000000E+00
  0.00000000E+00  0.00000000E+00  0.00000000E+00
  0.00000000E+00  0.00000000E+00  0.00000000E+00
  0.00000000E+00  0.00000000E+00  0.00000000E+00
  0.00000000E+00  0.00000000E+00  0.00000000E+00
  0.00000000E+00  0.00000000E+00  0.00000000E+00
  0.00000000E+00  0.00000000E+00  0.00000000E+00
  0.00000000E+00  0.00000000E+00  0.00000000E+00
  0.00000000E+00  0.00000000E+00  0.00000000E+00
  0.00000000E+00  0.00000000E+00  0.00000000E+00
  0.00000000E+00  0.00000000E+00  0.00000000E+00
  0.00000000E+00  0.00000000E+00  0.00000000E+00
  0.00000000E+00  0.00000000E+00  0.00000000E+00
  0.00000000E+00  0.00000000E+00  0.00000000E+00
  0.00000000E+00  0.00000000E+00  0.00000000E+00
  0.00000000E+00  0.00000000E+00  0.00000000E+00
