Ag  C  O Pd Rh                          
   1.00000000000000     
     5.5720014357499945    0.0000000000000000    0.0000000000000000
     2.7860007178749973    4.8254947932828607    0.0000000000000000
     0.0000000000000000    0.0000000000000000   29.0990402424284973
   Ag   C    O    Pd   Rh
     1     1     1    18     1
Selective dynamics
Direct
  0.8333333333333357  0.8333333333333357  0.5802252678260515   T   T   T
  0.1666666666666643  0.1666666666666643  0.7042741401148049   T   T   T
  0.1666666666666643  0.1666666666666643  0.7451049272526902   T   T   T
  0.3333333333333357  0.3333333333333357  0.3436539458582999   F   F   F
  0.8333333333333357  0.8333333333333357  0.3436539458582999   F   F   F
  0.3333333333333357  0.8333333333333357  0.3436539458582999   F   F   F
  0.0000000000000000  0.0000000000000000  0.4218269729291464   F   F   F
  0.5000000000000000  0.0000000000000000  0.4218269729291464   F   F   F
  0.5000000000000000  0.5000000000000000  0.4218269729291464   F   F   F
  0.1666666666666643  0.1666666666666643  0.5005667312604487   T   T   T
  0.8333333333333357  0.3333333333333357  0.3436539458582999   F   F   F
  0.6664152106843773  0.6664152106843773  0.5003514984405157   T   T   T
  0.8338027310274043  0.3330986344863049  0.5788591722306720   T   T   T
  0.3330986344863049  0.3330986344863049  0.5788591722306720   T   T   T
  0.3330986344863049  0.8338027310274043  0.5788591722306720   T   T   T
  0.9996373630464532  0.9996373630464532  0.6598027799049078   T   T   T
  0.5007252739070935  0.9996373630464532  0.6598027799049078   T   T   T
  0.9996373630464532  0.5007252739070935  0.6598027799049078   T   T   T
  0.5000000000000000  0.5000000000000000  0.6570773639204859   T   T   T
  0.6664152106843773  0.1671695786312384  0.5003514984405157   T   T   T
  0.1671695786312384  0.6664152106843773  0.5003514984405157   T   T   T
  0.0000000000000000  0.5000000000000000  0.4218269729291464   F   F   F
 
  0.00000000E+00  0.00000000E+00  0.00000000E+00
  0.00000000E+00  0.00000000E+00  0.00000000E+00
  0.00000000E+00  0.00000000E+00  0.00000000E+00
  0.00000000E+00  0.00000000E+00  0.00000000E+00
  0.00000000E+00  0.00000000E+00  0.00000000E+00
  0.00000000E+00  0.00000000E+00  0.00000000E+00
  0.00000000E+00  0.00000000E+00  0.00000000E+00
  0.00000000E+00  0.00000000E+00  0.00000000E+00
  0.00000000E+00  0.00000000E+00  0.00000000E+00
  0.00000000E+00  0.00000000E+00  0.00000000E+00
  0.00000000E+00  0.00000000E+00  0.00000000E+00
  0.00000000E+00  0.00000000E+00  0.00000000E+00
  0.00000000E+00  0.00000000E+00  0.00000000E+00
  0.00000000E+00  0.00000000E+00  0.00000000E+00
  0.00000000E+00  0.00000000E+00  0.00000000E+00
  0.00000000E+00  0.00000000E+00  0.00000000E+00
  0.00000000E+00  0.00000000E+00  0.00000000E+00
  0.00000000E+00  0.00000000E+00  0.00000000E+00
  0.00000000E+00  0.00000000E+00  0.00000000E+00
  0.00000000E+00  0.00000000E+00  0.00000000E+00
  0.00000000E+00  0.00000000E+00  0.00000000E+00
  0.00000000E+00  0.00000000E+00  0.00000000E+00
