Ag  C  O Pd Rh 
 1.0000000000000000
     5.5720014357499945    0.0000000000000000    0.0000000000000000
     2.7860007178749973    4.8254947932828607    0.0000000000000000
     0.0000000000000000    0.0000000000000000   29.0990402424284973
   1   1   1  18   1
Selective dynamics
Cartesian
  6.9650017946875131  4.0212456610690621 16.8839984181441274   T   T   T
  1.3930003589374789  0.8042491322137987 20.4937015449024749   T   T   T
  1.3930003589374789  0.8042491322137987 21.6818382629577826   T   T   T
  2.7860007178750168  1.6084982644276316 10.0000000000000124   F   F   F
  6.9650017946875131  4.0212456610690621 10.0000000000000124   F   F   F
  4.1790010768125159  4.0212456610690621 10.0000000000000124   F   F   F
  0.0000000000000000  0.0000000000000000 12.2747600606070275   F   F   F
  2.7860007178749973  0.0000000000000000 12.2747600606070275   F   F   F
  4.1790010768124954  2.4127473966414303 12.2747600606070275   F   F   F
  1.3930003589374789  0.8042491322137987 14.5660114569686137   T   T   T
  5.5720014357500149  1.6084982644276316 10.0000000000000124   F   F   F
  5.5698997661084695  3.2157831293219581 14.5597483884800578   T   T   T
  5.5739630492189756  1.6073657263632810 16.8442463474391033   T   T   T
  2.7840391044060562  1.6073657263632810 16.8442463474391033   T   T   T
  4.1790010768125159  4.0235107371977632 16.8442463474391033   T   T   T
 -0.0030309204387140 -0.0017499027311838 19.1996276445191185   T   T   T
  2.7890316383137121 -0.0017499027311838 19.1996276445191185   T   T   T
  1.3930003589374991  2.4162472021037993 19.1996276445191185   T   T   T
  4.1790010768124954  2.4127473966414303 19.1203206551110725   T   T   T
  4.1790010768124750  0.8066759312803389 14.5597483884800578   T   T   T
  2.7881023875164814  3.2157831293219581 14.5597483884800578   T   T   T
  1.3930003589374986  2.4127473966414303 12.2747600606070275   F   F   F
