Pt   C    H                             
   1.00000000000000     
     5.5578593001262604    0.0000000000000000    0.0000000000000000
     2.7789296500631302    4.8132473445689401    0.0000000000000000
     0.0000000000000000    0.0000000000000000   30.8069596737456983
   Pt   C    H 
    16     1     4
Direct
  0.0002842345637992  1.0001005317461980  0.3890261099187656
  0.5002898837798380  0.0000219030309693  0.3890503444520705
  0.0001913756064642  0.5001319633961279  0.3890587361823177
  0.5003053526964130  0.5001629427991654  0.3890489763891224
  0.1680785775238238  0.1674250743672684  0.4645134596380347
  0.6680659122782552  0.1674317563102008  0.4644888038966267
  0.1680885654790081  0.6674071886475659  0.4645053656388928
  0.6680679305843658  0.6674500390516679  0.4645743241248935
  0.8360809710286836  0.3348308418315641  0.5390591895468062
  0.3360931834564302  0.3348145832311986  0.5391106755464470
  0.8360787062033155  0.8348553345378656  0.5390627997740559
  0.3360423426661171  0.8348593048927917  0.5390640722216213
  0.0040226414487556  0.0021314568403820  0.6144468627343092
  0.5040112693169813  0.0021945551878293  0.6145401214642938
  0.0040555141152094  0.5021548662601750  0.6145715840111147
  0.5039038984051730  0.5021463631136003  0.6145192839276572
  0.9955092606874520  0.0369688437349121  0.7282772786918146
  0.9628530607088250  0.8826473964337088  0.7108791240407567
  0.8160487942654756  0.1624073927502110  0.7493792033186856
  0.1866269876675797  0.9294269590136967  0.7476809377981581
  0.0163404392351791  0.1740763265076459  0.7046151783958535
 
             NaN             NaN             NaN
             NaN             NaN             NaN
             NaN             NaN             NaN
             NaN             NaN             NaN
             NaN             NaN             NaN
             NaN             NaN             NaN
             NaN             NaN             NaN
             NaN             NaN             NaN
             NaN             NaN             NaN
             NaN             NaN             NaN
             NaN             NaN             NaN
             NaN             NaN             NaN
             NaN             NaN             NaN
             NaN             NaN             NaN
             NaN             NaN             NaN
             NaN             NaN             NaN
             NaN             NaN             NaN
             NaN             NaN             NaN
             NaN             NaN             NaN
             NaN             NaN             NaN
             NaN             NaN             NaN
