Pt   C    H 
1
   5.5578593001262604   0.0000000000000000   0.0000000000000000
   2.7789296500631302   4.8132473445689401   0.0000000000000000
   0.0000000000000000   0.0000000000000000  30.8069596737456983
Pt   C    H 
16  1  4  
Direct
  0.0002351370087245  0.9998346121196779  0.3895402319455320  
  0.4997778478972960  0.0000396047879272  0.3895122559131970  
  0.0002069576921480  0.4998458364074700  0.3895362880937840  
  0.4998041427526560  0.5000440863736110  0.3895246734055770  
  0.1672006785074490  0.1680972657695570  0.4650358645777420  
  0.6671502772198670  0.1680844146942340  0.4648222937107020  
  0.1673761571238240  0.6678020258094360  0.4650266411871220  
  0.6672645517441810  0.6680524854779110  0.4648962557749920  
  0.8350233888986750  0.3359961056975810  0.5395439988270510  
  0.3347037797255500  0.3361958816805380  0.5394790343517830  
  0.8351443508231770  0.8363211757659070  0.5395032048297240  
  0.3342400421229490  0.8364415435463760  0.5395571189859930  
  0.0023097896104276  0.0046041072577727  0.6156891706619561  
  0.5023663444301710  0.0044047314750260  0.6148529803638590  
  0.0026836917927671  0.5041035270390600  0.6152505057099690  
  0.5025348052469780  0.5040648484739130  0.6148290368486620  
  0.9921855511894920  0.0202919827512430  0.7306687880600180  
  0.9811996728918370  0.8588860757347230  0.7168741106317730  
  0.8166957935970820  0.1396292646920480  0.7483744945101430  
  0.1718534894207250  0.9356054338591570  0.7516724165241440  
  0.0015428662021603  0.2034955510322640  0.7067737508652490  
