Au  C  H Ir Pt                          
   1.00000000000000     
     5.5578593001262604    0.0000000000000000    0.0000000000000000
     2.7789296500631302    4.8132473445689401    0.0000000000000000
     0.0000000000000000    0.0000000000000000   30.8069596737456983
   Au   C    H    Ir   Pt
     1     1     4     1    14
Direct
  0.5079664924362248  0.9982153579300785  0.6158653397428751
  0.0025466490309469  0.0441612652981362  0.7127495755814124
  0.0213365116090500  0.1552795247080354  0.6840480282884656
  0.8677789003071794  0.2043092371652691  0.7361520946460232
  0.9079457329120828  0.9191927048534581  0.7032355813031828
  0.2120259352813036  0.9090662243047518  0.7256931700511231
  0.5014722970282435  0.0012601440861602  0.3909139011097693
  0.5070119463869034  0.4984955235645359  0.6157560551985597
  0.0078955422979590  0.4986984146792111  0.6157971470501664
  0.0075815711276732  0.9980891536791674  0.6153583977022379
  0.3391394667847294  0.8330247181344816  0.5404819276820874
  0.0013979260327588  0.0015148541964933  0.3908121808945708
  0.8390724774802649  0.3332126677125800  0.5404217583512150
  0.6702907001212779  0.6676620138961269  0.4663762357854111
  0.1703836882976333  0.6673665242804105  0.4661620770061603
  0.6702548150785717  0.1675408466425168  0.4661639906469333
  0.1702549081925540  0.1674809486232576  0.4662004118451506
  0.5015522717716792  0.5016090026268145  0.3908683613309023
  0.0011670001951529  0.5015451773697919  0.3909000017194728
  0.3393297570436360  0.3326820951954232  0.5406711030789921
  0.8393374999671011  0.8330932606075407  0.5404969168395795
 
  0.00000000E+00  0.00000000E+00  0.00000000E+00
  0.00000000E+00  0.00000000E+00  0.00000000E+00
  0.00000000E+00  0.00000000E+00  0.00000000E+00
  0.00000000E+00  0.00000000E+00  0.00000000E+00
  0.00000000E+00  0.00000000E+00  0.00000000E+00
  0.00000000E+00  0.00000000E+00  0.00000000E+00
  0.00000000E+00  0.00000000E+00  0.00000000E+00
  0.00000000E+00  0.00000000E+00  0.00000000E+00
  0.00000000E+00  0.00000000E+00  0.00000000E+00
  0.00000000E+00  0.00000000E+00  0.00000000E+00
  0.00000000E+00  0.00000000E+00  0.00000000E+00
  0.00000000E+00  0.00000000E+00  0.00000000E+00
  0.00000000E+00  0.00000000E+00  0.00000000E+00
  0.00000000E+00  0.00000000E+00  0.00000000E+00
  0.00000000E+00  0.00000000E+00  0.00000000E+00
  0.00000000E+00  0.00000000E+00  0.00000000E+00
  0.00000000E+00  0.00000000E+00  0.00000000E+00
  0.00000000E+00  0.00000000E+00  0.00000000E+00
  0.00000000E+00  0.00000000E+00  0.00000000E+00
  0.00000000E+00  0.00000000E+00  0.00000000E+00
  0.00000000E+00  0.00000000E+00  0.00000000E+00
